phonon nofreq
title
ASE calculation
end

cell
15.291153 15.291153 15.291153 90.00000 90.00000 90.00000
frac
C     core     0.408703    0.954607    0.993939
C     core     0.031560    0.056186    0.682953
C     core     0.345771    0.933750    0.704668
C     core     0.320247    0.494796    0.487855
C     core     0.090433    0.050828    0.537107
C     core     0.042048    0.741553    0.547084
C     core     0.889014    0.225766    0.913491
C     core     0.669180    0.309145    0.265346
C     core     0.976601    0.172061    0.553142
C     core     0.521797    0.376903    0.895027
C     core     0.471582    0.556011    0.580953
C     core     0.696995    0.329396    0.369059
C     core     0.041209    0.080932    0.363688
C     core     0.544097    0.317165    0.102670
C     core     0.088603    0.000778    0.356279
C     core     0.944948    0.075407    0.866917
C     core     0.494698    0.769170    0.265725
C     core     0.606480    0.232779    0.943609
C     core     0.437861    0.415972    0.760422
C     core     0.431202    0.794648    0.817681
C     core     0.543564    0.692220    0.877319
C     core     0.445020    0.292119    0.070776
C     core     0.296005    0.776727    0.293238
C     core     0.191634    0.376383    0.645128
C     core     0.096393    0.479930    0.427509
C     core     0.465563    0.321239    0.241122
C     core     0.765573    0.388963    0.327497
C     core     0.087521    0.825954    0.531123
C     core     0.087710    0.137899    0.218975
C     core     0.021019    0.280504    0.675677
C     core     0.104137    0.826848    0.431000
C     core     0.285717    0.344926    0.137383
C     core     0.522268    0.770468    0.520207
C     core     0.337928    0.108753    0.934810
C     core     0.142228    0.369547    0.268632
C     core     0.452929    0.163861    0.216918
C     core     0.678301    0.435505    0.832578
C     core     0.384902    0.172080    0.855910
C     core     0.220087    0.606360    0.423033
C     core     0.036128    0.381193    0.698556
C     core     0.423894    0.625781    0.461698
C     core     0.297560    0.393137    0.510466
C     core     0.307680    0.266348    0.192989
C     core     0.073740    0.503157    0.524829
C     core     0.712536    0.953339    0.978571
C     core     0.486471    0.146694    0.357471
C     core     0.998151    0.753780    0.152280
C     core     0.602112    0.230064    0.142624
C     core     0.228748    0.238675    0.917614
C     core     0.277353    0.557841    0.274957
C     core     0.693753    0.884352    0.634214
C     core     0.142931    0.063338    0.049973
C     core     0.788544    0.411413    0.006250
C     core     0.222009    0.080087    0.114579
C     core     0.225985    0.222609    0.236266
C     core     0.682611    0.681536    0.121930
C     core     0.332510    0.464059    0.655773
C     core     0.824324    0.624713    0.368674
C     core     0.401122    0.184714    0.312947
C     core     0.408919    0.579296    0.865523
C     core     0.958878    0.530094    0.360618
C     core     0.396317    0.245751    0.926214
C     core     0.158321    0.413577    0.425600
C     core     0.830821    0.148639    0.209671
C     core     0.883986    0.795730    0.525312
C     core     0.528741    0.807147    0.015108
C     core     0.895462    0.947378    0.443780
C     core     0.468399    0.415759    0.563480
C     core     0.885929    0.874524    0.123783
C     core     0.027867    0.066815    0.182764
C     core     0.405027    0.368422    0.357960
C     core     0.241790    0.244619    0.481033
C     core     0.705491    0.973983    0.316072
C     core     0.929517    0.820716    0.945137
C     core     0.067023    0.531166    0.905955
C     core     0.929962    0.472664    0.533649
C     core     0.367168    0.663541    0.620518
C     core     0.602223    0.461997    0.786464
C     core     0.182550    0.891859    0.058416
C     core     0.242102    0.555692    0.511959
C     core     0.765790    0.656462    0.923361
C     core     0.845462    0.277631    0.227775
C     core     0.033214    0.702180    0.462327
C     core     0.832509    0.965631    0.679112
C     core     0.589386    0.078121    0.520072
C     core     0.326680    0.476850    0.242351
C     core     0.728148    0.130007    0.974890
C     core     0.349938    0.680831    0.003234
C     core     0.633281    0.028568    0.339495
C     core     0.045671    0.908355    0.984471
C     core     0.397523    0.151983    0.143404
C     core     0.175765    0.867799    0.218081
C     core     0.774895    0.537994    0.255833
C     core     0.053422    0.637803    0.623872
C     core     0.378811    0.273599    0.569569
C     core     0.391087    0.272637    0.253394
C     core     0.398208    0.063396    0.100600
C     core     0.208742    0.847121    0.135901
C     core     0.613528    0.600888    0.367558
C     core     0.039041    0.196062    0.879626
C     core     0.867649    0.327317    0.558542
C     core     0.423863    0.752398    0.192584
C     core     0.171250    0.490420    0.533870
C     core     0.940853    0.019623    0.209868
C     core     0.624733    0.233910    0.501010
C     core     0.102693    0.920341    0.219373
C     core     0.271714    0.760802    0.455814
C     core     0.164931    0.967074    0.413421
C     core     0.215722    0.520498    0.968791
C     core     0.372658    0.371972    0.824543
C     core     0.881897    0.040759    0.732157
C     core     0.952488    0.160989    0.464830
C     core     0.519333    0.645423    0.709523
C     core     0.646330    0.247342    0.779500
C     core     0.251221    0.051632    0.262244
C     core     0.800074    0.983703    0.947577
C     core     0.746780    0.942231    0.393654
C     core     0.373823    0.449264    0.566610
C     core     0.087983    0.592837    0.704298
C     core     0.035344    0.310758    0.986322
C     core     0.197279    0.699919    0.433252
C     core     0.324911    0.303851    0.489912
C     core     0.674407    0.538262    0.036074
C     core     0.791447    0.091476    0.400033
C     core     0.764272    0.736092    0.704717
C     core     0.563650    0.040346    0.174328
C     core     0.208032    0.822255    0.306563
C     core     0.025434    0.096407    0.594852
C     core     0.846034    0.720078    0.148347
C     core     0.960169    0.432830    0.169413
C     core     0.250401    0.755523    0.121718
C     core     0.609168    0.691599    0.180451
C     core     0.088778    0.741584    0.027341
C     core     0.970330    0.779446    0.322347
C     core     0.147201    0.303096    0.919131
C     core     0.925984    0.384407    0.099943
C     core     0.583798    0.771565    0.590580
C     core     0.034289    0.485081    0.993709
C     core     0.637519    0.397344    0.230464
C     core     0.817519    0.594791    0.776782
C     core     0.667829    0.723187    0.733324
C     core     0.727078    0.860630    0.254039
C     core     0.798609    0.814037    0.667910
C     core     0.717253    0.647968    0.544320
C     core     0.490460    0.058966    0.498330
C     core     0.444406    0.935209    0.199538
C     core     0.161915    0.557628    0.901941
C     core     0.308010    0.288130    0.942701
C     core     0.621350    0.675563    0.419609
C     core     0.692582    0.197280    0.927112
C     core     0.961164    0.083840    0.412600
C     core     0.320343    0.944424    0.045016
C     core     0.558422    0.333020    0.385318
C     core     0.007733    0.551333    0.755034
C     core     0.965404    0.441468    0.655024
C     core     0.484940    0.832990    0.334533
C     core     0.545217    0.714902    0.450873
C     core     0.961518    0.271385    0.582049
C     core     0.399280    0.501933    0.184028
C     core     0.150038    0.594890    0.097925
C     core     0.119049    0.342031    0.825974
C     core     0.456527    0.153759    0.516721
C     core     0.768214    0.492153    0.175954
C     core     0.557352    0.147652    0.203410
C     core     0.583665    0.762522    0.234023
C     core     0.013128    0.815836    0.993018
C     core     0.240382    0.172058    0.070961
C     core     0.222763    0.217718    0.818692
C     core     0.422726    0.816681    0.400418
C     core     0.557693    0.836601    0.923990
C     core     0.578448    0.494248    0.662378
C     core     0.454386    0.845403    0.063583
C     core     0.364164    0.176097    0.548408
C     core     0.800757    0.967006    0.848670
C     core     0.776419    0.480538    0.516517
C     core     0.548607    0.214761    0.772900
C     core     0.845957    0.684017    0.737582
C     core     0.394247    0.937243    0.892625
C     core     0.301728    0.992308    0.211534
C     core     0.532191    0.280718    0.464384
C     core     0.502515    0.262693    0.693889
C     core     0.107248    0.232891    0.698679
C     core     0.323469    0.199557    0.123027
C     core     0.878968    0.932329    0.596007
C     core     0.724763    0.606531    0.088616
C     core     0.089501    0.725226    0.194099
C     core     0.616848    0.591466    0.974987
C     core     0.621507    0.480581    0.096746
C     core     0.811749    0.882003    0.818167
C     core     0.109417    0.727963    0.393978
C     core     0.438567    0.325586    0.889108
C     core     0.298319    0.060743    0.350073
C     core     0.035863    0.485160    0.822421
C     core     0.321590    0.600188    0.056235
C     core     0.960420    0.836428    0.168381
C     core     0.750638    0.955821    0.613893
C     core     0.666491    0.688640    0.961828
C     core     0.451023    0.959940    0.816621
C     core     0.425303    0.322737    0.712524
C     core     0.639966    0.982887    0.733968
C     core     0.047312    0.335296    0.560561
C     core     0.549288    0.411001    0.634048
C     core     0.941208    0.862864    0.463152
C     core     0.229626    0.975381    0.904238
C     core     0.272992    0.581067    0.761391
C     core     0.476931    0.042890    0.388829
C     core     0.684852    0.094257    0.059568
C     core     0.444363    0.828361    0.498952
C     core     0.673987    0.345916    0.860162
C     core     0.220925    0.715193    0.709176
C     core     0.722668    0.501121    0.881756
C     core     0.429660    0.215601    0.014659
C     core     0.830679    0.800722    0.094602
C     core     0.733938    0.163459    0.359639
C     core     0.680443    0.749960    0.050474
C     core     0.022430    0.900861    0.516678
C     core     0.197552    0.325873    0.091818
C     core     0.957138    0.337937    0.829188
C     core     0.553270    0.897622    0.325160
C     core     0.842792    0.837342    0.590963
C     core     0.343471    0.121499    0.624362
C     core     0.240041    0.027280    0.420784
C     core     0.954033    0.974572    0.855674
C     core     0.794827    0.755521    0.936679
C     core     0.791564    0.484838    0.338316
C     core     0.792939    0.031867    0.784397
C     core     0.833650    0.605739    0.976397
C     core     0.462285    0.211297    0.433332
C     core     0.013700    0.955522    0.689896
C     core     0.934684    0.833841    0.757998
C     core     0.324439    0.011943    0.908100
C     core     0.934427    0.685493    0.147237
C     core     0.527757    0.560488    0.360824
C     core     0.162069    0.387854    0.034521
C     core     0.243536    0.080907    0.493357
C     core     0.315187    0.376599    0.981467
C     core     0.670138    0.534668    0.333283
C     core     0.492326    0.202770    0.600147
C     core     0.780133    0.288674    0.578529
C     core     0.507749    0.567721    0.863927
C     core     0.175837    0.444224    0.203772
C     core     0.608462    0.814442    0.074115
C     core     0.833883    0.256399    0.069134
C     core     0.609653    0.814502    0.752769
C     core     0.036389    0.388524    0.799529
C     core     0.308287    0.596341    0.365687
C     core     0.969321    0.672730    0.935765
C     core     0.811329    0.790974    0.375285
C     core     0.560346    0.628512    0.801338
C     core     0.660350    0.641867    0.796390
C     core     0.892005    0.471692    0.349260
C     core     0.870413    0.445857    0.047874
C     core     0.158043    0.104929    0.959214
C     core     0.586047    0.321246    0.654119
C     core     0.531689    0.990207    0.841480
C     core     0.763896    0.084213    0.118741
C     core     0.241488    0.857052    0.498930
C     core     0.261516    0.696992    0.621529
C     core     0.933650    0.522976    0.165338
C     core     0.286860    0.737250    0.771553
C     core     0.304918    0.756578    0.552993
C     core     0.654110    0.003782    0.031873
C     core     0.886326    0.091862    0.254533
C     core     0.120198    0.577337    0.259523
C     core     0.748023    0.252291    0.412962
C     core     0.086054    0.884838    0.718830
C     core     0.350149    0.439717    0.332974
C     core     0.362008    0.848497    0.868768
C     core     0.235647    0.781274    0.949362
C     core     0.525622    0.476522    0.303932
C     core     0.653730    0.528301    0.619233
C     core     0.491948    0.392541    0.347338
C     core     0.311591    0.917696    0.526723
C     core     0.620930    0.754626    0.895962
C     core     0.792696    0.588863    0.529454
C     core     0.403260    0.997116    0.746847
C     core     0.545189    0.090832    0.951122
C     core     0.343556    0.759796    0.382288
C     core     0.474673    0.847741    0.163380
C     core     0.448413    0.994896    0.564009
C     core     0.390301    0.293069    0.412909
C     core     0.925930    0.621992    0.366070
C     core     0.119442    0.761458    0.287777
C     core     0.624217    0.857262    0.255608
C     core     0.388170    0.836664    0.671048
C     core     0.412060    0.090329    0.751528
C     core     0.170600    0.855087    0.573700
C     core     0.145506    0.281957    0.219111
C     core     0.203117    0.042660    0.713601
C     core     0.955173    0.951340    0.283609
C     core     0.799121    0.710386    0.230628
C     core     0.771963    0.785643    0.023678
C     core     0.387440    0.009480    0.340604
C     core     0.717365    0.041298    0.731765
C     core     0.596569    0.314921    0.902697
C     core     0.146140    0.327889    0.567785
C     core     0.413898    0.623070    0.553510
C     core     0.889807    0.129051    0.931212
C     core     0.350026    0.144705    0.711277
C     core     0.360858    0.427920    0.910491
C     core     0.933760    0.486897    0.985514
C     core     0.236351    0.933539    0.998482
C     core     0.813931    0.880263    0.728759
C     core     0.016861    0.427398    0.562268
C     core     0.383114    0.509126    0.930623
C     core     0.193464    0.871093    0.403160
C     core     0.623701    0.141884    0.462521
C     core     0.500922    0.720501    0.975841
C     core     0.080728    0.976996    0.482548
C     core     0.481700    0.556922    0.438392
C     core     0.660738    0.824537    0.571709
C     core     0.813720    0.595739    0.065558
C     core     0.056301    0.834130    0.339081
C     core     0.245247    0.215714    0.331037
C     core     0.240214    0.954652    0.680058
C     core     0.631148    0.064874    0.601808
C     core     0.371556    0.663261    0.394988
C     core     0.211817    0.896526    0.847467
C     core     0.738416    0.002739    0.537435
C     core     0.066132    0.579990    0.037483
C     core     0.561804    0.168504    0.996327
C     core     0.150991    0.705413    0.112810
C     core     0.782823    0.702876    0.409520
C     core     0.511239    0.557003    0.661495
C     core     0.065637    0.090662    0.763178
C     core     0.144602    0.530242    0.183082
C     core     0.983053    0.384108    0.249357
C     core     0.378961    0.963652    0.257207
C     core     0.933729    0.511519    0.705979
C     core     0.024099    0.792402    0.716131
C     core     0.987818    0.253524    0.153323
C     core     0.580489    0.867270    0.156105
C     core     0.201525    0.617272    0.833337
C     core     0.478140    0.980145    0.039592
C     core     0.281161    0.684270    0.848089
C     core     0.948168    0.699540    0.427621
C     core     0.813713    0.290726    0.898718
C     core     0.856127    0.420117    0.534359
C     core     0.010178    0.126240    0.827674
C     core     0.255811    0.597956    0.601486
C     core     0.599820    0.693625    0.655590
C     core     0.445937    0.724867    0.882598
C     core     0.752799    0.854791    0.427301
C     core     0.546964    0.534699    0.137150
C     core     0.298461    0.763199    0.026988
C     core     0.980597    0.683762    0.302833
C     core     0.340771    0.506039    0.395902
C     core     0.920061    0.743004    0.895463
C     core     0.374143    0.581693    0.768031
C     core     0.099082    0.922518    0.059792
C     core     0.391753    0.492722    0.721531
C     core     0.974640    0.044094    0.035723
C     core     0.935135    0.945251    0.759181
C     core     0.592647    0.269107    0.318361
C     core     0.625463    0.465027    0.298986
C     core     0.192621    0.104930    0.644028
C     core     0.581468    0.009515    0.662471
C     core     0.390953    0.530041    0.026415
C     core     0.053168    0.928348    0.302230
C     core     0.309133    0.016078    0.114007
C     core     0.047192    0.937108    0.883642
C     core     0.792292    0.543208    0.427269
C     core     0.665456    0.908887    0.913948
C     core     0.977823    0.927232    0.602601
C     core     0.571681    0.249641    0.584609
C     core     0.271025    0.829538    0.877552
C     core     0.356808    0.846319    0.045683
C     core     0.199850    0.396421    0.516157
C     core     0.218824    0.356007    0.783929
C     core     0.066790    0.950184    0.143550
C     core     0.158836    0.235864    0.087797
C     core     0.144131    0.249351    0.779549
C     core     0.953496    0.281720    0.244238
C     core     0.479393    0.886404    0.690872
C     core     0.066760    0.730280    0.787933
C     core     0.817596    0.427704    0.776637
C     core     0.682349    0.830474    0.873820
C     core     0.869713    0.964942    0.150376
C     core     0.167140    0.889366    0.656318
C     core     0.667615    0.298499    0.703554
C     core     0.403347    0.919094    0.514678
C     core     0.540554    0.633744    0.162191
C     core     0.570390    0.937943    0.913713
C     core     0.733416    0.481088    0.973572
C     core     0.466872    0.318413    0.535651
C     core     0.283974    0.378996    0.661209
C     core     0.847340    0.264819    0.390853
C     core     0.928058    0.294182    0.091331
C     core     0.793157    0.626074    0.272945
C     core     0.480749    0.574082    0.061109
C     core     0.804891    0.082658    0.955633
C     core     0.247372    0.154472    0.969440
C     core     0.784328    0.791493    0.278828
C     core     0.449680    0.669878    0.144248
C     core     0.903960    0.978536    0.361080
C     core     0.561089    0.001206    0.994024
C     core     0.492468    0.493898    0.212678
C     core     0.728827    0.256341    0.854277
C     core     0.693221    0.258284    0.183565
C     core     0.966291    0.969888    0.985216
C     core     0.794026    0.317533    0.994443
C     core     0.753288    0.307357    0.667778
C     core     0.520920    0.488417    0.507626
C     core     0.538449    0.444105    0.966681
C     core     0.031160    0.585901    0.551673
C     core     0.374682    0.808450    0.576876
C     core     0.720729    0.085744    0.644267
C     core     0.163052    0.192579    0.636416
C     core     0.292261    0.975943    0.593759
C     core     0.208740    0.272353    0.391511
C     core     0.446090    0.673119    0.038619
C     core     0.772265    0.812281    0.866503
C     core     0.087534    0.237566    0.014750
C     core     0.633344    0.388383    0.425272
C     core     0.505485    0.960589    0.641975
C     core     0.899290    0.294069    0.747719
C     core     0.265598    0.424266    0.190237
C     core     0.570824    0.408297    0.047704
C     core     0.005603    0.649459    0.794106
C     core     0.194476    0.120308    0.211246
C     core     0.702535    0.806959    0.490266
C     core     0.857374    0.367832    0.847098
C     core     0.713140    0.959483    0.214091
C     core     0.230640    0.573998    0.043544
C     core     0.867052    0.990591    0.517498
C     core     0.639939    0.124577    0.363651
C     core     0.148922    0.517411    0.687229
C     core     0.702736    0.706859    0.467102
C     core     0.984621    0.224624    0.321548
C     core     0.842329    0.152766    0.099046
C     core     0.810708    0.115459    0.617260
C     core     0.893858    0.754023    0.803977
C     core     0.047972    0.639721    0.240535
C     core     0.150723    0.060090    0.789554
C     core     0.379058    0.759070    0.739019
C     core     0.875551    0.074055    0.352105
C     core     0.930650    0.227831    0.400336
C     core     0.028930    0.661577    0.006419
C     core     0.392709    0.456684    0.094029
C     core     0.379705    0.594759    0.142436
C     core     0.845233    0.517292    0.114422
C     core     0.475954    0.007144    0.138627
C     core     0.981887    0.591191    0.876684
C     core     0.874730    0.617855    0.575293
C     core     0.523487    0.427167    0.806608
C     core     0.978348    0.273727    0.902851
C     core     0.181009    0.068593    0.558248
C     core     0.996530    0.725181    0.640357
C     core     0.361777    0.033997    0.604691
C     core     0.319676    0.158569    0.365757
C     core     0.931501    0.216232    0.697702
C     core     0.783269    0.001430    0.158232
C     core     0.128109    0.429856    0.683320
C     core     0.102398    0.786842    0.861060
C     core     0.903417    0.560140    0.937954
C     core     0.054701    0.041691    0.089838
C     core     0.318509    0.210459    0.780479
C     core     0.060398    0.424047    0.288997
C     core     0.681466    0.476560    0.545918
C     core     0.821759    0.340299    0.724853
C     core     0.111976    0.883299    0.824510
C     core     0.298978    0.161350    0.474480
C     core     0.883510    0.134645    0.684729
C     core     0.570753    0.172389    0.308420
C     core     0.362230    0.365902    0.071761
C     core     0.071643    0.393302    0.008361
C     core     0.139149    0.663560    0.756031
C     core     0.941718    0.564827    0.542518
C     core     0.227903    0.429721    0.986077
C     core     0.081220    0.223320    0.161879
C     core     0.658163    0.621085    0.609549
C     core     0.783947    0.260642    0.161126
C     core     0.554093    0.985228    0.351913
C     core     0.236566    0.550071    0.680210
C     core     0.542488    0.346922    0.202273
C     core     0.044201    0.489477    0.353630
C     core     0.891139    0.924207    0.932308
C     core     0.915316    0.389337    0.319978
C     core     0.607527    0.154229    0.076492
C     core     0.168013    0.046576    0.880539
C     core     0.614725    0.451086    0.488768
C     core     0.181576    0.240002    0.559639
C     core     0.900439    0.677020    0.646688
C     core     0.907832    0.108479    0.031688
C     core     0.723283    0.259632    0.511110
C     core     0.414413    0.663381    0.712453
C     core     0.687508    0.444232    0.160547
C     core     0.174392    0.351146    0.363074
C     core     0.956208    0.854417    0.256747
C     core     0.363324    0.667624    0.901674
C     core     0.187693    0.575993    0.321223
C     core     0.764081    0.178898    0.261153
C     core     0.532121    0.079127    0.863141
C     core     0.740069    0.598170    0.842560
C     core     0.516960    0.832722    0.763036
C     core     0.300860    0.317582    0.787230
C     core     0.843053    0.327529    0.315160
C     core     0.482614    0.143373    0.811266
C     core     0.551639    0.535259    0.938464
C     core     0.402361    0.124252    0.015938
C     core     0.908330    0.790588    0.398164
C     core     0.351331    0.311413    0.656719
C     core     0.619272    0.969271    0.178420
C     core     0.758739    0.017579    0.449563
C     core     0.850979    0.512881    0.750063
C     core     0.844794    0.078328    0.537522
C     core     0.967877    0.604064    0.182763
C     core     0.656912    0.889268    0.721637
C     core     0.322373    0.759078    0.206728
C     core     0.145600    0.767408    0.944256
C     core     0.047900    0.156210    0.308961
C     core     0.093400    0.176450    0.948390

brenner
dispersion 7 20
0.5 0.0 0.5 to 0.0 0.0 0.5
0.0 0.0 0.5 to 0.0 0.0 0.0
0.0 0.0 0.0 to 0.5 0.0 0.0
0.5 0.0 0.0 to 0.5 0.5 0.0
0.5 0.5 0.0 to 0.5 0.5 0.5
0.5 0.5 0.5 to 0.0 0.5 0.5
0.0 0.5 0.5 to 0.0 0.5 0.0
output phonon 60sp2
