phon noden prop
title
ASE calculation
end

cell
 3.596577  3.596577  3.596577 90.00000 90.00000 90.00000
frac
 C  core  0.0000000   0.0000000   0.0000000
 C  core  0.0000000   0.5000000   0.5000000
 C  core  0.5000000   0.5000000   0.0000000
 C  core  0.5000000   0.0000000   0.5000000
 C  core  0.7500000   0.2500000   0.7500000
 C  core  0.2500000   0.2500000   0.2500000
 C  core  0.2500000   0.7500000   0.7500000
 C  core  0.7500000   0.7500000   0.2500000

brenner
temperature 10 10 29
shrink 8 8 8
output freq text freq_1.0225.out
