phon noden prop
title
ASE calculation
end

cell
 7.670000  7.670000  7.670000 90.00000 90.00000 90.00000
frac
 C  core  0.4760400   0.5198800   0.0650200
 C  core  0.4091400   0.7373700   0.3085400
 C  core  0.2906800   0.2618900   0.9104500
 C  core  0.1039900   0.0082900   0.6168500
 C  core  0.9570300   0.8553800   0.8826500
 C  core  0.7954200   0.4764700   0.5832100
 C  core  0.6159200   0.4130700   0.6799600
 C  core  0.7880200   0.7131400   0.3381400
 C  core  0.8847200   0.2435900   0.3274400
 C  core  0.6883800   0.1588100   0.1430700
 C  core  0.8699700   0.0358000   0.3621100
 C  core  0.9503200   0.9316100   0.5221200
 C  core  0.5169800   0.0578500   0.1517000
 C  core  0.5507400   0.9785900   0.4979900
 C  core  0.4691400   0.3293300   0.0012300
 C  core  0.9504300   0.3491400   0.4889500
 C  core  0.1596000   0.4190700   0.8318600
 C  core  0.8301700   0.7349000   0.8148600
 C  core  0.9115900   0.9468700   0.0382300
 C  core  0.1435400   0.9158600   0.7975400
 C  core  0.8700800   0.6479800   0.6572700
 C  core  0.8906200   0.1231300   0.7290400
 C  core  0.4980300   0.5972100   0.4138800
 C  core  0.6512700   0.7046800   0.8841700
 C  core  0.6407200   0.5864300   0.0274200
 C  core  0.7900200   0.9744400   0.7200000
 C  core  0.4736700   0.4564800   0.5771500
 C  core  0.3595200   0.6386100   0.1408300
 C  core  0.5909100   0.9532200   0.6930600
 C  core  0.7160300   0.3389400   0.2342000
 C  core  0.0101900   0.1981300   0.1560100
 C  core  0.9710000   0.3941800   0.8964000
 C  core  0.5034700   0.7882900   0.7876700
 C  core  0.8506800   0.1351700   0.0363100
 C  core  0.3542800   0.1762600   0.7126500
 C  core  0.1143200   0.4773800   0.4491300
 C  core  0.1852100   0.1674300   0.0820500
 C  core  0.2816500   0.3976100   0.5177800
 C  core  0.1011300   0.6724300   0.4216900
 C  core  0.9331100   0.4976400   0.0389500
 C  core  0.8350000   0.2436500   0.8732700
 C  core  0.3762500   0.2145500   0.1690300
 C  core  0.3938300   0.1147600   0.5096400
 C  core  0.9786400   0.7105400   0.2680900
 C  core  0.3960200   0.2767100   0.3701200
 C  core  0.5587400   0.3980900   0.3395600
 C  core  0.3068300   0.7645000   0.7878800
 C  core  0.9246300   0.8968600   0.2134500
 C  core  0.7669800   0.4843000   0.1077800
 C  core  0.2534900   0.8033700   0.4157400
 C  core  0.7047200   0.5520100   0.4113100
 C  core  0.9554700   0.7483000   0.5344700
 C  core  0.2299200   0.6053200   0.8659400
 C  core  0.0407000   0.6162300   0.1150400
 C  core  0.6258200   0.2854700   0.8480700
 C  core  0.4380400   0.0142900   0.9706300
 C  core  0.5197300   0.9115000   0.2887300
 C  core  0.2047000   0.6418100   0.0486700
 C  core  0.0362600   0.2089700   0.6152900
 C  core  0.2561900   0.9607100   0.4944700
 C  core  0.7134200   0.8939000   0.3725700
 C  core  0.2420700   0.0098400   0.9550600
 C  core  0.5162100   0.1008900   0.8103400
 C  core  0.1994600   0.3033400   0.6712400

brenner
shrink 8 8 8
output freq text freq_1.0075.out
