phon noden prop
title
ASE calculation
end

cell
 7.621600  7.621600  7.621600 90.00000 90.00000 90.00000
frac
 C  core  0.0251000   0.5871500   0.3653200
 C  core  0.2610600   0.1022500   0.1070200
 C  core  0.1000000   0.4393000   0.2672100
 C  core  0.8792000   0.9672500   0.4526900
 C  core  0.4776000   0.9163700   0.9890700
 C  core  0.7861900   0.4481000   0.2211700
 C  core  0.9205800   0.6352200   0.7175500
 C  core  0.8103400   0.5523500   0.5896200
 C  core  0.1324200   0.3804100   0.6395900
 C  core  0.4053100   0.7639100   0.1175900
 C  core  0.8888000   0.2552100   0.7461500
 C  core  0.5717800   0.8972300   0.5571600
 C  core  0.4254500   0.2409000   0.6321500
 C  core  0.2018000   0.9826300   0.7978900
 C  core  0.5221000   0.6079800   0.4063000
 C  core  0.9885500   0.9376700   0.1198800
 C  core  0.1376200   0.8208800   0.8583000
 C  core  0.3492900   0.6888500   0.6631200
 C  core  0.7376200   0.3829000   0.6832400
 C  core  0.0444100   0.2596500   0.2652000
 C  core  0.9361200   0.1743900   0.4200200
 C  core  0.8437200   0.6149200   0.4151800
 C  core  0.4803100   0.8165800   0.6893700
 C  core  0.7942000   0.2984100   0.3285500
 C  core  0.6687200   0.1588900   0.0154700
 C  core  0.5203600   0.6041100   0.0885800
 C  core  0.6054300   0.2806000   0.5711000
 C  core  0.6350300   0.9879600   0.1181100
 C  core  0.4806400   0.9158300   0.2501300
 C  core  0.3400300   0.0559300   0.9231000
 C  core  0.8095500   0.1114500   0.8827800
 C  core  0.8640900   0.7645000   0.8375500
 C  core  0.3076800   0.3955000   0.5771300
 C  core  0.2279200   0.6872000   0.1235700
 C  core  0.0713700   0.5113400   0.7791400
 C  core  0.3259300   0.1030400   0.5087200
 C  core  0.1197500   0.7417600   0.4239600
 C  core  0.5427600   0.3139600   0.9567200
 C  core  0.0625000   0.1323200   0.1084000
 C  core  0.7694000   0.9406400   0.7961400
 C  core  0.3929400   0.5576600   0.5346100
 C  core  0.0679300   0.8973200   0.4981000
 C  core  0.9993200   0.4291000   0.9544200
 C  core  0.2394300   0.5012800   0.1574100
 C  core  0.1977900   0.6711800   0.7690300
 C  core  0.8908900   0.5191600   0.0816500
 C  core  0.8013900   0.8616700   0.1542800
 C  core  0.9835900   0.2225600   0.9483400
 C  core  0.7761700   0.8048500   0.3494500
 C  core  0.8201000   0.6992900   0.0252300
 C  core  0.1592500   0.0416100   0.6074500
 C  core  0.4774700   0.2635300   0.2762800
 C  core  0.4352200   0.3997300   0.1230000
 C  core  0.3670300   0.0866000   0.2922100
 C  core  0.6243800   0.2668800   0.3920200
 C  core  0.4228200   0.2101700   0.8319600
 C  core  0.6437900   0.4546600   0.8501700
 C  core  0.7378100   0.9648700   0.6022900
 C  core  0.1015300   0.8029000   0.0432400
 C  core  0.6168400   0.5358900   0.2543600
 C  core  0.5736800   0.8080000   0.3890300
 C  core  0.0271400   0.2095400   0.6028700
 C  core  0.6399000   0.6399500   0.9325000
 C  core  0.5883300   0.8231900   0.8525100

brenner
shrink 8 8 8
output freq text freq_1.0050.out
