phon noden prop
title
ASE calculation
end

cell
 7.583500  7.583500  7.583500 90.00000 90.00000 90.00000
frac
 C  core  0.0251000   0.5871500   0.3653200
 C  core  0.2617700   0.1023800   0.1077300
 C  core  0.1000200   0.4386800   0.2675500
 C  core  0.8790200   0.9669500   0.4527900
 C  core  0.4770600   0.9172400   0.9888500
 C  core  0.7868100   0.4474200   0.2203800
 C  core  0.9226400   0.6371600   0.7171800
 C  core  0.8102600   0.5542000   0.5902100
 C  core  0.1319400   0.3801600   0.6389700
 C  core  0.4044300   0.7644800   0.1176600
 C  core  0.8895600   0.2566700   0.7465400
 C  core  0.5703100   0.8999900   0.5573900
 C  core  0.4256300   0.2409500   0.6324200
 C  core  0.2003800   0.9835900   0.7984400
 C  core  0.5228400   0.6085000   0.4067300
 C  core  0.9878500   0.9381800   0.1210200
 C  core  0.1352300   0.8215200   0.8582100
 C  core  0.3480300   0.6899600   0.6626500
 C  core  0.7381200   0.3840000   0.6834300
 C  core  0.0460300   0.2584700   0.2660900
 C  core  0.9361000   0.1736100   0.4199000
 C  core  0.8433900   0.6157400   0.4150600
 C  core  0.4788400   0.8185600   0.6898200
 C  core  0.7941600   0.2972000   0.3277100
 C  core  0.6693600   0.1606100   0.0169500
 C  core  0.5202900   0.6046000   0.0884800
 C  core  0.6059700   0.2806500   0.5714200
 C  core  0.6341100   0.9892600   0.1188400
 C  core  0.4794500   0.9161000   0.2511000
 C  core  0.3395100   0.0565900   0.9231000
 C  core  0.8101900   0.1127300   0.8838600
 C  core  0.8672800   0.7669800   0.8380300
 C  core  0.3075300   0.3954300   0.5761500
 C  core  0.2268200   0.6871700   0.1234400
 C  core  0.0715900   0.5103300   0.7794200
 C  core  0.3261600   0.1024200   0.5094100
 C  core  0.1215100   0.7412600   0.4238200
 C  core  0.5427400   0.3146000   0.9570200
 C  core  0.0632400   0.1316200   0.1091100
 C  core  0.7696300   0.9419000   0.7967100
 C  core  0.3927800   0.5582000   0.5343400
 C  core  0.0681600   0.8967400   0.4985900
 C  core  0.0012100   0.4289500   0.9548000
 C  core  0.2385400   0.5008900   0.1563200
 C  core  0.1960400   0.6719900   0.7683400
 C  core  0.8924900   0.5197400   0.0818000
 C  core  0.8002400   0.8628000   0.1551900
 C  core  0.9854000   0.2221900   0.9491000
 C  core  0.7757200   0.8053000   0.3500200
 C  core  0.8212300   0.7002900   0.0253200
 C  core  0.1590500   0.0416100   0.6078400
 C  core  0.4764000   0.2636800   0.2765900
 C  core  0.4350400   0.3991300   0.1227700
 C  core  0.3659600   0.0867100   0.2941800
 C  core  0.6242300   0.2664700   0.3918300
 C  core  0.4224200   0.2111400   0.8322000
 C  core  0.6438500   0.4555400   0.8503400
 C  core  0.7372900   0.9671500   0.6026200
 C  core  0.0996400   0.8026700   0.0435200
 C  core  0.6175500   0.5361600   0.2544900
 C  core  0.5731300   0.8090000   0.3898400
 C  core  0.0270600   0.2086900   0.6024500
 C  core  0.6405200   0.6412000   0.9323900
 C  core  0.5884900   0.8244000   0.8524400

brenner
shrink 8 8 8
output freq text freq_0.9900.out
