phon noden prop
title
ASE calculation
end

cell
 7.726600  7.726600  7.726600 90.00000 90.00000 90.00000
frac
 C  core  0.4760400   0.5198800   0.0650200
 C  core  0.4079700   0.7362900   0.3103700
 C  core  0.2903700   0.2632300   0.9103500
 C  core  0.1038200   0.0077600   0.6193300
 C  core  0.9557100   0.8552300   0.8852700
 C  core  0.7964000   0.4762700   0.5845600
 C  core  0.6171600   0.4111000   0.6801500
 C  core  0.7866300   0.7134000   0.3434100
 C  core  0.8854900   0.2418900   0.3291500
 C  core  0.6895800   0.1579000   0.1449000
 C  core  0.8688500   0.0335100   0.3653800
 C  core  0.9503000   0.9313200   0.5254400
 C  core  0.5175400   0.0581000   0.1537400
 C  core  0.5485400   0.9776300   0.4991800
 C  core  0.4685800   0.3297500   0.0013200
 C  core  0.9503500   0.3492500   0.4915000
 C  core  0.1590100   0.4196700   0.8337600
 C  core  0.8293600   0.7353700   0.8160100
 C  core  0.9096500   0.9456100   0.0408500
 C  core  0.1438300   0.9160300   0.8011000
 C  core  0.8693500   0.6487200   0.6586800
 C  core  0.8898400   0.1244900   0.7307900
 C  core  0.4958900   0.5946700   0.4141800
 C  core  0.6509700   0.7048000   0.8855700
 C  core  0.6404600   0.5856100   0.0275400
 C  core  0.7875400   0.9787300   0.7179800
 C  core  0.4760800   0.4514500   0.5776500
 C  core  0.3595200   0.6366800   0.1426700
 C  core  0.5888700   0.9543000   0.6947600
 C  core  0.7164800   0.3381200   0.2344200
 C  core  0.0113800   0.1994600   0.1570000
 C  core  0.9712800   0.3936100   0.8995400
 C  core  0.5029400   0.7892800   0.7910800
 C  core  0.8522100   0.1342100   0.0391000
 C  core  0.3538000   0.1775000   0.7144700
 C  core  0.1144200   0.4776900   0.4523400
 C  core  0.1864800   0.1712600   0.0824700
 C  core  0.2820000   0.3971000   0.5190800
 C  core  0.0997500   0.6724600   0.4239000
 C  core  0.9325000   0.4973100   0.0408700
 C  core  0.8357600   0.2427500   0.8763000
 C  core  0.3786200   0.2162300   0.1695300
 C  core  0.3925600   0.1144300   0.5120700
 C  core  0.9764900   0.7092700   0.2707500
 C  core  0.3972600   0.2775000   0.3730600
 C  core  0.5619800   0.3978700   0.3413400
 C  core  0.3052500   0.7648600   0.7932300
 C  core  0.9201100   0.8945400   0.2154600
 C  core  0.7661900   0.4834000   0.1076900
 C  core  0.2525400   0.8029600   0.4177200
 C  core  0.7026500   0.5531400   0.4160600
 C  core  0.9548500   0.7485800   0.5366300
 C  core  0.2285400   0.6055700   0.8700700
 C  core  0.0396200   0.6149100   0.1182600
 C  core  0.6250500   0.2850600   0.8504000
 C  core  0.4370300   0.0170300   0.9725700
 C  core  0.5189600   0.9112000   0.2909200
 C  core  0.2039200   0.6389400   0.0528600
 C  core  0.0363400   0.2087200   0.6180400
 C  core  0.2555300   0.9596200   0.4966700
 C  core  0.7114700   0.8937500   0.3759000
 C  core  0.2413200   0.0134500   0.9564600
 C  core  0.5148300   0.1017900   0.8120700
 C  core  0.1988600   0.3040600   0.6731600

brenner
temperature 10 10 29
shrink 8 8 8
output freq text freq_1.0300.out
