phon noden prop
title
ASE calculation
end

cell
 7.609000  7.609000  7.609000 90.00000 90.00000 90.00000
frac
 C  core  0.0251000   0.5871500   0.3653200
 C  core  0.2613100   0.1023500   0.1072600
 C  core  0.1000200   0.4391300   0.2673200
 C  core  0.8791600   0.9671900   0.4527300
 C  core  0.4774500   0.9167100   0.9890300
 C  core  0.7864000   0.4479000   0.2209300
 C  core  0.9212100   0.6358800   0.7174500
 C  core  0.8103000   0.5529800   0.5898100
 C  core  0.1322600   0.3803800   0.6394200
 C  core  0.4050400   0.7641500   0.1176600
 C  core  0.8890600   0.2557300   0.7462900
 C  core  0.5713200   0.8981800   0.5572600
 C  core  0.4255100   0.2409600   0.6322400
 C  core  0.2013600   0.9829800   0.7980800
 C  core  0.5223600   0.6081900   0.4064700
 C  core  0.9883300   0.9379200   0.1202800
 C  core  0.1368700   0.8211400   0.8583000
 C  core  0.3489100   0.6892400   0.6630200
 C  core  0.7377800   0.3832900   0.6833100
 C  core  0.0449500   0.2593000   0.2655000
 C  core  0.9361300   0.1741600   0.4199900
 C  core  0.8436200   0.6152300   0.4151600
 C  core  0.4798600   0.8172700   0.6895400
 C  core  0.7942000   0.2980400   0.3283000
 C  core  0.6689600   0.1595000   0.0159700
 C  core  0.5203300   0.6043100   0.0885900
 C  core  0.6056100   0.2806400   0.5712200
 C  core  0.6347500   0.9884400   0.1183800
 C  core  0.4802700   0.9159700   0.2504900
 C  core  0.3398800   0.0561900   0.9231100
 C  core  0.8097800   0.1119200   0.8831500
 C  core  0.8650800   0.7653300   0.8377300
 C  core  0.3076300   0.3955200   0.5768300
 C  core  0.2275700   0.6872600   0.1235700
 C  core  0.0714300   0.5110800   0.7792500
 C  core  0.3260000   0.1028800   0.5089400
 C  core  0.1203300   0.7416100   0.4239200
 C  core  0.5427800   0.3141900   0.9568300
 C  core  0.0627600   0.1321400   0.1086500
 C  core  0.7695000   0.9411200   0.7963500
 C  core  0.3929000   0.5578800   0.5345500
 C  core  0.0680200   0.8971500   0.4982700
 C  core  0.9999600   0.4291100   0.9545700
 C  core  0.2391300   0.5012200   0.1570600
 C  core  0.1972700   0.6714700   0.7688800
 C  core  0.8914200   0.5193900   0.0817300
 C  core  0.8010400   0.8620900   0.1546100
 C  core  0.9842100   0.2225000   0.9486000
 C  core  0.7760500   0.8050400   0.3496600
 C  core  0.8204600   0.6996600   0.0253000
 C  core  0.1591900   0.0416500   0.6075900
 C  core  0.4771400   0.2636100   0.2763900
 C  core  0.4352400   0.3995300   0.1229100
 C  core  0.3666900   0.0866800   0.2928700
 C  core  0.6243500   0.2667700   0.3919700
 C  core  0.4227000   0.2105300   0.8320500
 C  core  0.6438200   0.4549800   0.8502300
 C  core  0.7376600   0.9656800   0.6024200
 C  core  0.1009300   0.8029000   0.0433700
 C  core  0.6170800   0.5360200   0.2544400
 C  core  0.5735300   0.8083700   0.3893200
 C  core  0.0271300   0.2093000   0.6027500
 C  core  0.6401000   0.6404000   0.9324900
 C  core  0.5883900   0.8236300   0.8525200

brenner
shrink 8 8 8
output freq text freq_1.0000.out
