phon noden prop
title
ASE calculation
end

cell
 7.556000  7.556000  7.556000 90.00000 90.00000 90.00000
frac
 C  core  0.0357800   0.5261700   0.3398900
 C  core  0.2397500   0.0577100   0.0739200
 C  core  0.0873100   0.3743300   0.2429400
 C  core  0.8599000   0.9086500   0.4183400
 C  core  0.4472000   0.8624100   0.9524000
 C  core  0.7833900   0.4265700   0.2174100
 C  core  0.9054700   0.5841000   0.6861600
 C  core  0.7953900   0.4998900   0.5555000
 C  core  0.1153600   0.3286300   0.6101100
 C  core  0.3707300   0.7104100   0.0910000
 C  core  0.8679300   0.2047600   0.7142600
 C  core  0.5493300   0.8529900   0.5146400
 C  core  0.4045600   0.1895800   0.5924300
 C  core  0.1749700   0.9310900   0.7723600
 C  core  0.5018200   0.5589100   0.3684200
 C  core  0.9592200   0.8959500   0.0853100
 C  core  0.1235800   0.7662400   0.8413700
 C  core  0.2794600   0.6690300   0.5711900
 C  core  0.7164600   0.3311600   0.6454200
 C  core  0.0270200   0.1981600   0.2404000
 C  core  0.9150600   0.1163700   0.3919700
 C  core  0.8360100   0.5618400   0.3665800
 C  core  0.4401800   0.7757700   0.6414400
 C  core  0.7740900   0.2405200   0.2893100
 C  core  0.6484900   0.1106100   0.9836800
 C  core  0.4835500   0.5477200   0.0495200
 C  core  0.5844500   0.2290900   0.5284800
 C  core  0.6083900   0.9363600   0.0787900
 C  core  0.4596400   0.8629300   0.2148500
 C  core  0.3155400   0.0071700   0.8898400
 C  core  0.7920700   0.0607600   0.8519200
 C  core  0.8467300   0.7173800   0.8016800
 C  core  0.2904800   0.3483700   0.5450300
 C  core  0.1901400   0.6425300   0.1593300
 C  core  0.0577100   0.4574700   0.7512000
 C  core  0.3071800   0.0468000   0.4774800
 C  core  0.1609800   0.6875100   0.3794700
 C  core  0.5197500   0.2590300   0.9158200
 C  core  0.0395600   0.0828800   0.0763100
 C  core  0.7416800   0.8884900   0.7617200
 C  core  0.3655200   0.5058700   0.4818200
 C  core  0.0515700   0.8478800   0.4629000
 C  core  0.0302900   0.3870800   0.9414900
 C  core  0.2021600   0.4309800   0.0799200
 C  core  0.1622700   0.6287700   0.7289100
 C  core  0.8773800   0.4828900   0.0495000
 C  core  0.7758500   0.8117300   0.1135100
 C  core  0.9665400   0.1876000   0.9173500
 C  core  0.7635500   0.7536200   0.3102600
 C  core  0.7883800   0.6490600   0.9824100
 C  core  0.1389000   0.9895900   0.5788600
 C  core  0.4490500   0.2117500   0.2337700
 C  core  0.4030400   0.3403300   0.0728200
 C  core  0.3432600   0.0313100   0.2623300
 C  core  0.6004400   0.2156900   0.3467300
 C  core  0.4024500   0.1546900   0.7917100
 C  core  0.6174400   0.4025500   0.8102800
 C  core  0.7161300   0.9154800   0.5668000
 C  core  0.0808700   0.7605500   0.0252800
 C  core  0.5791800   0.4731900   0.2167900
 C  core  0.5590700   0.7557400   0.3506300
 C  core  0.0075000   0.1578300   0.5728800
 C  core  0.6061400   0.5874500   0.8947400
 C  core  0.5533100   0.7719300   0.8088500

brenner
shrink 8 8 8
output freq text freq_1.0000.out
