phon noden prop
title
ASE calculation
end

cell
 7.630800  7.630800  7.630800 90.00000 90.00000 90.00000
frac
 C  core  0.0357800   0.5261700   0.3398900
 C  core  0.2399900   0.0553400   0.0754300
 C  core  0.0848900   0.3743900   0.2432200
 C  core  0.8620600   0.9079300   0.4216500
 C  core  0.4493800   0.8604300   0.9553200
 C  core  0.7821100   0.4268400   0.2226100
 C  core  0.9062100   0.5816200   0.6906100
 C  core  0.7983900   0.4977500   0.5592700
 C  core  0.1182300   0.3280700   0.6156000
 C  core  0.3725200   0.7091300   0.0933600
 C  core  0.8694900   0.2023800   0.7171000
 C  core  0.5527500   0.8471900   0.5171800
 C  core  0.4063900   0.1901600   0.5960500
 C  core  0.1791400   0.9297300   0.7735200
 C  core  0.5011600   0.5582000   0.3699000
 C  core  0.9618900   0.8939100   0.0866400
 C  core  0.1265100   0.7661700   0.8422000
 C  core  0.2781300   0.6679900   0.5705400
 C  core  0.7182200   0.3299000   0.6492900
 C  core  0.0243300   0.1988600   0.2410100
 C  core  0.9168400   0.1163200   0.3952900
 C  core  0.8377000   0.5607500   0.3704200
 C  core  0.4427900   0.7710900   0.6430100
 C  core  0.7754600   0.2418600   0.2952700
 C  core  0.6496900   0.1070300   0.9842500
 C  core  0.4849300   0.5468800   0.0524100
 C  core  0.5855500   0.2296900   0.5325100
 C  core  0.6112300   0.9335000   0.0799500
 C  core  0.4625200   0.8621000   0.2153900
 C  core  0.3178800   0.0054400   0.8923600
 C  core  0.7934800   0.0583900   0.8534000
 C  core  0.8447700   0.7131600   0.8050200
 C  core  0.2925900   0.3486800   0.5504500
 C  core  0.1920000   0.6409400   0.1616900
 C  core  0.0591600   0.4571300   0.7553900
 C  core  0.3091900   0.0490500   0.4793400
 C  core  0.1616500   0.6860800   0.3796600
 C  core  0.5217700   0.2572600   0.9189700
 C  core  0.0404000   0.0820100   0.0786900
 C  core  0.7420300   0.8847800   0.7641800
 C  core  0.3663900   0.5050000   0.4844100
 C  core  0.0544700   0.8484100   0.4640900
 C  core  0.0313500   0.3866100   0.9464100
 C  core  0.2022500   0.4310600   0.0830000
 C  core  0.1605000   0.6295600   0.7287100
 C  core  0.8768300   0.4808900   0.0543800
 C  core  0.7790100   0.8095400   0.1158300
 C  core  0.9655900   0.1859400   0.9191900
 C  core  0.7653000   0.7527300   0.3129100
 C  core  0.7892000   0.6465400   0.9862800
 C  core  0.1417900   0.9896100   0.5800700
 C  core  0.4533400   0.2115100   0.2376200
 C  core  0.4056100   0.3400400   0.0765000
 C  core  0.3469500   0.0316700   0.2611200
 C  core  0.6024400   0.2157500   0.3519800
 C  core  0.4046300   0.1531800   0.7950600
 C  core  0.6196100   0.4007000   0.8142500
 C  core  0.7182500   0.9093400   0.5695400
 C  core  0.0845700   0.7604400   0.0259300
 C  core  0.5791100   0.4730400   0.2192700
 C  core  0.5604400   0.7541700   0.3517800
 C  core  0.0098000   0.1584100   0.5761900
 C  core  0.6074500   0.5855300   0.8984300
 C  core  0.5549100   0.7697500   0.8114600

brenner
shrink 8 8 8
output freq text freq_1.0300.out
