phon noden prop
title
ASE calculation
end

cell
 7.570700  7.570700  7.570700 90.00000 90.00000 90.00000
frac
 C  core  0.0251000   0.5871500   0.3653200
 C  core  0.2620200   0.1023400   0.1079100
 C  core  0.1001000   0.4383900   0.2677400
 C  core  0.8789500   0.9667700   0.4527900
 C  core  0.4769500   0.9174500   0.9887000
 C  core  0.7870400   0.4470600   0.2200600
 C  core  0.9231400   0.6376000   0.7170100
 C  core  0.8101400   0.5546400   0.5902700
 C  core  0.1317400   0.3800100   0.6386300
 C  core  0.4042400   0.7645700   0.1175900
 C  core  0.8897500   0.2570500   0.7466300
 C  core  0.5698100   0.9008000   0.5573900
 C  core  0.4256500   0.2408400   0.6324400
 C  core  0.1999200   0.9837600   0.7986200
 C  core  0.5231100   0.6085400   0.4067600
 C  core  0.9876800   0.9382200   0.1213800
 C  core  0.1345200   0.8215500   0.8582100
 C  core  0.3476800   0.6901400   0.6624600
 C  core  0.7382100   0.3842100   0.6834200
 C  core  0.0465800   0.2580000   0.2663700
 C  core  0.9360800   0.1732600   0.4198200
 C  core  0.8432700   0.6159100   0.4149400
 C  core  0.4783700   0.8190800   0.6899100
 C  core  0.7941100   0.2966400   0.3273500
 C  core  0.6694700   0.1611400   0.0174300
 C  core  0.5203600   0.6046600   0.0883000
 C  core  0.6061100   0.2804900   0.5714400
 C  core  0.6338400   0.9895900   0.1190700
 C  core  0.4790700   0.9160900   0.2513400
 C  core  0.3393600   0.0567100   0.9230600
 C  core  0.8103200   0.1130900   0.8841900
 C  core  0.8681100   0.7676000   0.8381100
 C  core  0.3074500   0.3952800   0.5757000
 C  core  0.2265700   0.6870000   0.1234200
 C  core  0.0716200   0.5099600   0.7793800
 C  core  0.3262000   0.1020700   0.5096200
 C  core  0.1221100   0.7410500   0.4237800
 C  core  0.5426200   0.3148400   0.9571200
 C  core  0.0634700   0.1313000   0.1092900
 C  core  0.7696700   0.9422500   0.7968300
 C  core  0.3927500   0.5582300   0.5341700
 C  core  0.0682000   0.8964700   0.4987400
 C  core  0.0018500   0.4288100   0.9548700
 C  core  0.2384500   0.5005800   0.1561000
 C  core  0.1955600   0.6720800   0.7681400
 C  core  0.8930800   0.5198300   0.0818500
 C  core  0.7999000   0.8630900   0.1554700
 C  core  0.9859600   0.2219700   0.9492900
 C  core  0.7755600   0.8053700   0.3501700
 C  core  0.8216700   0.7005200   0.0253800
 C  core  0.1589600   0.0415000   0.6079600
 C  core  0.4759300   0.2636600   0.2766400
 C  core  0.4345700   0.3990900   0.1227800
 C  core  0.3655700   0.0866100   0.2947500
 C  core  0.6241400   0.2661900   0.3916600
 C  core  0.4222500   0.2113900   0.8322300
 C  core  0.6438200   0.4557600   0.8503200
 C  core  0.7370800   0.9678700   0.6026700
 C  core  0.0990900   0.8024200   0.0436500
 C  core  0.6177800   0.5360900   0.2544200
 C  core  0.5729500   0.8092200   0.3900400
 C  core  0.0269800   0.2083300   0.6023000
 C  core  0.6408500   0.6415800   0.9322300
 C  core  0.5886000   0.8247100   0.8523200

brenner
shrink 8 8 8
output freq text freq_0.9850.out
