phon noden prop
title
ASE calculation
end

cell
 7.518000  7.518000  7.518000 90.00000 90.00000 90.00000
frac
 C  core  0.0357800   0.5261700   0.3398900
 C  core  0.2396700   0.0595100   0.0728700
 C  core  0.0887100   0.3744200   0.2427000
 C  core  0.8589400   0.9091500   0.4163500
 C  core  0.4461000   0.8637900   0.9505700
 C  core  0.7842200   0.4266900   0.2142300
 C  core  0.9052400   0.5857600   0.6835800
 C  core  0.7939300   0.5013800   0.5533000
 C  core  0.1140300   0.3293300   0.6070600
 C  core  0.3699000   0.7113200   0.0894100
 C  core  0.8671500   0.2065900   0.7125200
 C  core  0.5476500   0.8564900   0.5128600
 C  core  0.4037200   0.1896500   0.5901800
 C  core  0.1728400   0.9322600   0.7715300
 C  core  0.5023600   0.5594700   0.3673300
 C  core  0.9578300   0.8973400   0.0841800
 C  core  0.1220900   0.7667200   0.8404800
 C  core  0.2800600   0.6700500   0.5709200
 C  core  0.7155400   0.3322400   0.6430300
 C  core  0.0285100   0.1979400   0.2399900
 C  core  0.9140500   0.1166800   0.3899900
 C  core  0.8351600   0.5626200   0.3642300
 C  core  0.4388800   0.7787600   0.6401600
 C  core  0.7734000   0.2399800   0.2855700
 C  core  0.6477900   0.1130200   0.9832000
 C  core  0.4830500   0.5484900   0.0476700
 C  core  0.5839600   0.2292000   0.5258600
 C  core  0.6068800   0.9382500   0.0778500
 C  core  0.4581600   0.8636400   0.2142400
 C  core  0.3143800   0.0084800   0.8882800
 C  core  0.7914400   0.0627000   0.8510400
 C  core  0.8479400   0.7200500   0.7995900
 C  core  0.2895200   0.3486100   0.5419200
 C  core  0.1891800   0.6435200   0.1573700
 C  core  0.0572700   0.4581200   0.7488300
 C  core  0.3062200   0.0459500   0.4763900
 C  core  0.1606800   0.6883200   0.3786700
 C  core  0.5185800   0.2605600   0.9138700
 C  core  0.0390700   0.0836800   0.0747600
 C  core  0.7415600   0.8909100   0.7601400
 C  core  0.3652300   0.5067000   0.4802000
 C  core  0.0502000   0.8477900   0.4621100
 C  core  0.0305200   0.3880700   0.9391700
 C  core  0.2011800   0.4310500   0.0776200
 C  core  0.1632700   0.6288900   0.7285600
 C  core  0.8778000   0.4844200   0.0465500
 C  core  0.7741800   0.8132400   0.1119300
 C  core  0.9669900   0.1890200   0.9160900
 C  core  0.7627900   0.7543300   0.3085100
 C  core  0.7880500   0.6508100   0.9799700
 C  core  0.1374600   0.9899200   0.5779800
 C  core  0.4465900   0.2123100   0.2312600
 C  core  0.4010100   0.3414600   0.0704600
 C  core  0.3413300   0.0313700   0.2625400
 C  core  0.5993300   0.2161200   0.3434100
 C  core  0.4014300   0.1558200   0.7896400
 C  core  0.6162500   0.4039900   0.8078100
 C  core  0.7151100   0.9192000   0.5650100
 C  core  0.0788200   0.7609000   0.0244300
 C  core  0.5792500   0.4733600   0.2151200
 C  core  0.5585400   0.7567600   0.3496800
 C  core  0.0063100   0.1579400   0.5709300
 C  core  0.6055900   0.5889100   0.8924700
 C  core  0.5525800   0.7735300   0.8070900

brenner
shrink 8 8 8
output freq text freq_0.9850.out
