conv opti lbfgs isotropic
title
ASE calculation
end

cell
 7.631702  7.631702  7.631702 90.00000 90.00000 90.00000
frac
 C  core  0.4760400   0.5198800   0.0650200
 C  core  0.4082300   0.7395700   0.3043200
 C  core  0.2835000   0.2578000   0.9035400
 C  core  0.1217400   0.0150000   0.6198200
 C  core  0.9616300   0.8581200   0.8817700
 C  core  0.7912300   0.4848100   0.5776500
 C  core  0.6116500   0.4182200   0.6742500
 C  core  0.7917400   0.7178800   0.3281900
 C  core  0.8850600   0.2529900   0.3238600
 C  core  0.6779600   0.1646100   0.1305000
 C  core  0.8767400   0.0390700   0.3626800
 C  core  0.9619700   0.9559700   0.5233300
 C  core  0.5107000   0.0622200   0.1415100
 C  core  0.5540900   0.9857800   0.4870900
 C  core  0.4617700   0.3260300   0.9930000
 C  core  0.9468900   0.3571600   0.4829800
 C  core  0.1540700   0.4211700   0.8285200
 C  core  0.8317700   0.7387300   0.8145600
 C  core  0.9201200   0.9543100   0.0370800
 C  core  0.1476100   0.9164100   0.7946600
 C  core  0.8683600   0.6560000   0.6543800
 C  core  0.8799400   0.1325900   0.7208800
 C  core  0.4994600   0.6001000   0.4097700
 C  core  0.6531500   0.7102600   0.8821900
 C  core  0.6387400   0.5913200   0.0280200
 C  core  0.7817600   0.9804100   0.7066700
 C  core  0.4725100   0.4539700   0.5727300
 C  core  0.3587100   0.6393400   0.1402400
 C  core  0.5895700   0.9568600   0.6802900
 C  core  0.7180400   0.3373900   0.2326100
 C  core  0.0011400   0.1870500   0.1480800
 C  core  0.9654300   0.4040900   0.8902100
 C  core  0.5061200   0.7895800   0.7850600
 C  core  0.8377800   0.1414800   0.0245400
 C  core  0.3496100   0.1769800   0.7043200
 C  core  0.1141600   0.4810200   0.4493700
 C  core  0.1774700   0.1567400   0.0763400
 C  core  0.2816700   0.3978000   0.5123200
 C  core  0.0989100   0.6808400   0.4194300
 C  core  0.9301500   0.5065700   0.0350900
 C  core  0.8257100   0.2541400   0.8635600
 C  core  0.3629400   0.2140000   0.1657700
 C  core  0.3994700   0.1209700   0.5025900
 C  core  0.9833800   0.7155600   0.2659000
 C  core  0.3949100   0.2815600   0.3587500
 C  core  0.5606200   0.3973100   0.3361800
 C  core  0.3152700   0.7674800   0.7893000
 C  core  0.9378200   0.9099400   0.2117800
 C  core  0.7662800   0.4926200   0.1079400
 C  core  0.2547800   0.8068000   0.4113900
 C  core  0.7039200   0.5562300   0.4062700
 C  core  0.9577500   0.7624100   0.5340000
 C  core  0.2324800   0.6057900   0.8694000
 C  core  0.0432700   0.6165000   0.1156800
 C  core  0.6199600   0.2899100   0.8401100
 C  core  0.4377200   0.0088100   0.9648300
 C  core  0.5200900   0.9150400   0.2815600
 C  core  0.2069500   0.6387600   0.0507400
 C  core  0.0240900   0.2122600   0.6084400
 C  core  0.2632000   0.9659800   0.4922000
 C  core  0.7148500   0.9051600   0.3572900
 C  core  0.2479000   0.9940300   0.9563700
 C  core  0.5095500   0.1025100   0.8024900
 C  core  0.1899600   0.3029500   0.6683600

brenner
maxcyc 2000
output cif opti_0.9925.cif
