phon noden prop
title
ASE calculation
end

cell
 7.631700  7.631700  7.631700 90.00000 90.00000 90.00000
frac
 C  core  0.4760400   0.5198800   0.0650200
 C  core  0.4100600   0.7382500   0.3070500
 C  core  0.2907100   0.2609500   0.9107000
 C  core  0.1044000   0.0087800   0.6153800
 C  core  0.9588500   0.8544300   0.8815500
 C  core  0.7959800   0.4758600   0.5816900
 C  core  0.6154400   0.4144100   0.6795000
 C  core  0.7891600   0.7132400   0.3347600
 C  core  0.8843500   0.2450600   0.3266100
 C  core  0.6873600   0.1596100   0.1414900
 C  core  0.8708800   0.0374900   0.3601600
 C  core  0.9507300   0.9318100   0.5199200
 C  core  0.5164800   0.0579100   0.1500100
 C  core  0.5517300   0.9792600   0.4966500
 C  core  0.4694300   0.3290700   0.0011300
 C  core  0.9504600   0.3497800   0.4876300
 C  core  0.1600900   0.4187000   0.8307600
 C  core  0.8319300   0.7330200   0.8146600
 C  core  0.9133400   0.9475300   0.0366400
 C  core  0.1441200   0.9153100   0.7952100
 C  core  0.8716300   0.6467200   0.6563400
 C  core  0.8910700   0.1232200   0.7275200
 C  core  0.4998100   0.5992700   0.4133900
 C  core  0.6521900   0.7039600   0.8830500
 C  core  0.6409900   0.5868500   0.0275300
 C  core  0.7907600   0.9736900   0.7197500
 C  core  0.4722300   0.4607500   0.5767400
 C  core  0.3595600   0.6400300   0.1394500
 C  core  0.5917300   0.9525100   0.6914200
 C  core  0.7158700   0.3393700   0.2340900
 C  core  0.0091100   0.1961100   0.1555900
 C  core  0.9709400   0.3947700   0.8944900
 C  core  0.5049700   0.7871200   0.7848900
 C  core  0.8493900   0.1355800   0.0340800
 C  core  0.3545700   0.1756200   0.7115300
 C  core  0.1145500   0.4773400   0.4471300
 C  core  0.1841300   0.1644600   0.0817400
 C  core  0.2818300   0.3981800   0.5170100
 C  core  0.1023900   0.6725000   0.4202500
 C  core  0.9336700   0.4979900   0.0378700
 C  core  0.8346900   0.2446300   0.8712700
 C  core  0.3744100   0.2134800   0.1685900
 C  core  0.3947000   0.1155600   0.5079600
 C  core  0.9803400   0.7115500   0.2664200
 C  core  0.3953200   0.2765900   0.3679900
 C  core  0.5570300   0.3984400   0.3385800
 C  core  0.3086300   0.7638400   0.7838100
 C  core  0.9281300   0.8986500   0.2124400
 C  core  0.7676800   0.4849400   0.1080900
 C  core  0.2544000   0.8037900   0.4143600
 C  core  0.7063500   0.5513800   0.4084600
 C  core  0.9562300   0.7481300   0.5331200
 C  core  0.2311000   0.6050700   0.8630200
 C  core  0.0416100   0.6174000   0.1128300
 C  core  0.6261900   0.2858400   0.8464100
 C  core  0.4388200   0.0123500   0.9691500
 C  core  0.5203300   0.9118400   0.2868000
 C  core  0.2053500   0.6441400   0.0455900
 C  core  0.0364000   0.2094900   0.6134400
 C  core  0.2569100   0.9615700   0.4929500
 C  core  0.7147000   0.8943200   0.3701300
 C  core  0.2427500   0.0072700   0.9541200
 C  core  0.5170700   0.1002800   0.8090000
 C  core  0.2000500   0.3031400   0.6700100

brenner
temperature 10 10 29
shrink 8 8 8
output freq text freq_0.9925.out
