phon noden prop
title
ASE calculation
end

cell
 7.650900  7.650900  7.650900 90.00000 90.00000 90.00000
frac
 C  core  0.4760400   0.5198800   0.0650200
 C  core  0.4095700   0.7377900   0.3078400
 C  core  0.2907500   0.2614200   0.9105900
 C  core  0.1040400   0.0085600   0.6160300
 C  core  0.9577500   0.8550100   0.8819500
 C  core  0.7957200   0.4760800   0.5824500
 C  core  0.6157600   0.4136700   0.6797600
 C  core  0.7885400   0.7131000   0.3365000
 C  core  0.8845400   0.2442800   0.3270200
 C  core  0.6879400   0.1591800   0.1423300
 C  core  0.8703800   0.0366000   0.3610800
 C  core  0.9504100   0.9316300   0.5209900
 C  core  0.5167800   0.0578400   0.1509100
 C  core  0.5513100   0.9789300   0.4974300
 C  core  0.4693300   0.3291900   0.0011900
 C  core  0.9504500   0.3494000   0.4882900
 C  core  0.1598900   0.4189300   0.8313200
 C  core  0.8310300   0.7338400   0.8147500
 C  core  0.9122800   0.9471700   0.0373500
 C  core  0.1436900   0.9156700   0.7963400
 C  core  0.8708600   0.6472400   0.6568100
 C  core  0.8909800   0.1231700   0.7283700
 C  core  0.4988600   0.5981700   0.4136400
 C  core  0.6517100   0.7042900   0.8836100
 C  core  0.6408500   0.5866400   0.0274800
 C  core  0.7905500   0.9740300   0.7200500
 C  core  0.4730500   0.4584600   0.5769800
 C  core  0.3595500   0.6393100   0.1401700
 C  core  0.5914500   0.9529200   0.6923400
 C  core  0.7159500   0.3391700   0.2341500
 C  core  0.0097200   0.1972700   0.1558100
 C  core  0.9710000   0.3944900   0.8954500
 C  core  0.5042100   0.7877900   0.7863600
 C  core  0.8501300   0.1354100   0.0352700
 C  core  0.3544500   0.1759100   0.7121200
 C  core  0.1144300   0.4773400   0.4481100
 C  core  0.1847300   0.1659800   0.0819200
 C  core  0.2817400   0.3979200   0.5174100
 C  core  0.1017300   0.6724400   0.4209600
 C  core  0.9333900   0.4978300   0.0384100
 C  core  0.8349200   0.2441400   0.8723300
 C  core  0.3754000   0.2140000   0.1688200
 C  core  0.3942300   0.1150400   0.5088300
 C  core  0.9794300   0.7110200   0.2672600
 C  core  0.3956500   0.2765600   0.3691300
 C  core  0.5578300   0.3982100   0.3390200
 C  core  0.3076800   0.7643300   0.7859300
 C  core  0.9261900   0.8976700   0.2128500
 C  core  0.7673300   0.4846100   0.1079300
 C  core  0.2538900   0.8035600   0.4150400
 C  core  0.7055000   0.5516000   0.4099200
 C  core  0.9558300   0.7481500   0.5338100
 C  core  0.2305200   0.6052800   0.8645000
 C  core  0.0411500   0.6168100   0.1139600
 C  core  0.6260900   0.2856400   0.8473000
 C  core  0.4384400   0.0133400   0.9699300
 C  core  0.5200300   0.9116400   0.2878400
 C  core  0.2050300   0.6429900   0.0471700
 C  core  0.0364000   0.2092700   0.6143900
 C  core  0.2564500   0.9611300   0.4937000
 C  core  0.7140500   0.8940200   0.3714200
 C  core  0.2424000   0.0085600   0.9545800
 C  core  0.5166900   0.1006300   0.8097300
 C  core  0.1998100   0.3032600   0.6706500

brenner
temperature 10 10 29
shrink 8 8 8
output freq text freq_1.0000.out
