conv opti conj isotropic
title
ASE calculation
end

cell
 7.659272  7.659272  7.659272 90.00000 90.00000 90.00000
frac
 C  core  0.0251000   0.5871500   0.3653200
 C  core  0.2619600   0.1023500   0.1078800
 C  core  0.1000800   0.4384600   0.2677000
 C  core  0.8789600   0.9668200   0.4528000
 C  core  0.4769700   0.9174000   0.9887400
 C  core  0.7869900   0.4471500   0.2201400
 C  core  0.9230400   0.6375200   0.7170500
 C  core  0.8101700   0.5545600   0.5902600
 C  core  0.1317900   0.3800400   0.6387100
 C  core  0.4042700   0.7645500   0.1176100
 C  core  0.8897000   0.2569800   0.7466100
 C  core  0.5699100   0.9006200   0.5574000
 C  core  0.4256500   0.2408700   0.6324400
 C  core  0.2000200   0.9837300   0.7985900
 C  core  0.5230600   0.6085400   0.4067600
 C  core  0.9877200   0.9382000   0.1213000
 C  core  0.1346800   0.8215500   0.8582100
 C  core  0.3477500   0.6901100   0.6624900
 C  core  0.7381900   0.3841800   0.6834300
 C  core  0.0464500   0.2581100   0.2663000
 C  core  0.9360800   0.1733400   0.4198500
 C  core  0.8433000   0.6158800   0.4149700
 C  core  0.4784700   0.8189700   0.6898900
 C  core  0.7941200   0.2967800   0.3274400
 C  core  0.6694400   0.1610300   0.0173300
 C  core  0.5203400   0.6046500   0.0883400
 C  core  0.6060800   0.2805400   0.5714400
 C  core  0.6338900   0.9895200   0.1190200
 C  core  0.4791600   0.9160900   0.2512900
 C  core  0.3393900   0.0566800   0.9230700
 C  core  0.8102800   0.1130200   0.8841200
 C  core  0.8679500   0.7674900   0.8380900
 C  core  0.3074700   0.3953200   0.5758100
 C  core  0.2266200   0.6870300   0.1234100
 C  core  0.0716100   0.5100400   0.7794000
 C  core  0.3261900   0.1021500   0.5095800
 C  core  0.1219700   0.7411000   0.4238100
 C  core  0.5426500   0.3147900   0.9571000
 C  core  0.0634200   0.1313700   0.1092500
 C  core  0.7696500   0.9421800   0.7968100
 C  core  0.3927500   0.5582300   0.5342000
 C  core  0.0681800   0.8965300   0.4987200
 C  core  0.0017000   0.4288400   0.9548500
 C  core  0.2384700   0.5006500   0.1561500
 C  core  0.1956500   0.6720800   0.7681600
 C  core  0.8929500   0.5198100   0.0818400
 C  core  0.7999800   0.8630300   0.1554100
 C  core  0.9858300   0.2220100   0.9492500
 C  core  0.7756000   0.8053600   0.3501400
 C  core  0.8215700   0.7004700   0.0253600
 C  core  0.1589800   0.0415300   0.6079500
 C  core  0.4760400   0.2636700   0.2766300
 C  core  0.4346800   0.3991000   0.1227800
 C  core  0.3656600   0.0866300   0.2946400
 C  core  0.6241600   0.2662700   0.3917100
 C  core  0.4222900   0.2113400   0.8322300
 C  core  0.6438200   0.4557200   0.8503300
 C  core  0.7371200   0.9677100   0.6026600
 C  core  0.0992100   0.8024700   0.0436100
 C  core  0.6177300   0.5361100   0.2544300
 C  core  0.5729900   0.8091800   0.3900000
 C  core  0.0270000   0.2084100   0.6023400
 C  core  0.6407700   0.6415000   0.9322700
 C  core  0.5885600   0.8246500   0.8523500

brenner
maxcyc 2000
output cif opti_1.0200.cif
