phon noden prop
title
ASE calculation
end

cell
 7.659400  7.659400  7.659400 90.00000 90.00000 90.00000
frac
 C  core  0.0251000   0.5871500   0.3653200
 C  core  0.2603400   0.1017400   0.1063000
 C  core  0.0999000   0.4397400   0.2668800
 C  core  0.8791800   0.9672300   0.4525600
 C  core  0.4781400   0.9152400   0.9890300
 C  core  0.7855500   0.4485200   0.2217700
 C  core  0.9185900   0.6330200   0.7178000
 C  core  0.8104100   0.5502600   0.5889400
 C  core  0.1328500   0.3803200   0.6399400
 C  core  0.4061100   0.7630100   0.1171500
 C  core  0.8879200   0.2532800   0.7456200
 C  core  0.5729500   0.8942700   0.5567100
 C  core  0.4252200   0.2405100   0.6316600
 C  core  0.2030800   0.9814000   0.7972400
 C  core  0.5212700   0.6071300   0.4056500
 C  core  0.9891900   0.9367400   0.1186300
 C  core  0.1398200   0.8199600   0.8581700
 C  core  0.3503900   0.6874800   0.6633700
 C  core  0.7370600   0.3814800   0.6828800
 C  core  0.0427900   0.2605800   0.2642600
 C  core  0.9360200   0.1749500   0.4200100
 C  core  0.8440000   0.6138400   0.4151800
 C  core  0.4816000   0.8143900   0.6888100
 C  core  0.7941600   0.2993000   0.3291000
 C  core  0.6679100   0.1569300   0.0139300
 C  core  0.5204700   0.6033700   0.0883800
 C  core  0.6048300   0.2802700   0.5705500
 C  core  0.6357600   0.9864000   0.1172900
 C  core  0.4815500   0.9152300   0.2489400
 C  core  0.3404600   0.0550000   0.9229500
 C  core  0.8086700   0.1096900   0.8815700
 C  core  0.8610300   0.7618300   0.8369500
 C  core  0.3077800   0.3952100   0.5778300
 C  core  0.2289400   0.6868800   0.1234300
 C  core  0.0711600   0.5119700   0.7786400
 C  core  0.3256300   0.1032300   0.5078400
 C  core  0.1180300   0.7421300   0.4240600
 C  core  0.5426700   0.3131400   0.9562700
 C  core  0.0616600   0.1326700   0.1075800
 C  core  0.7686100   0.9388200   0.7954700
 C  core  0.3930200   0.5568100   0.5346900
 C  core  0.0675100   0.8976700   0.4976000
 C  core  0.9973600   0.4288800   0.9539100
 C  core  0.2402200   0.5013600   0.1583700
 C  core  0.1992800   0.6701500   0.7693600
 C  core  0.8893600   0.5183400   0.0813700
 C  core  0.8023800   0.8602900   0.1532900
 C  core  0.9815900   0.2225500   0.9474500
 C  core  0.7764100   0.8040800   0.3488000
 C  core  0.8191100   0.6980500   0.0250200
 C  core  0.1593400   0.0413400   0.6069400
 C  core  0.4783500   0.2631100   0.2757800
 C  core  0.4350600   0.4002700   0.1231900
 C  core  0.3679300   0.0862700   0.2905800
 C  core  0.6244300   0.2670800   0.3919500
 C  core  0.4231200   0.2089500   0.8315600
 C  core  0.6436800   0.4535300   0.8498400
 C  core  0.7380800   0.9623100   0.6018500
 C  core  0.1032500   0.8027100   0.0427500
 C  core  0.6161000   0.5353700   0.2539900
 C  core  0.5739900   0.8067100   0.3880400
 C  core  0.0271000   0.2101200   0.6032300
 C  core  0.6394200   0.6385800   0.9323500
 C  core  0.5884100   0.8219300   0.8522900

brenner
shrink 8 8 8
output freq text freq_1.0200.out
