phon noden prop
title
ASE calculation
end

cell
 7.707800  7.707800  7.707800 90.00000 90.00000 90.00000
frac
 C  core  0.4760400   0.5198800   0.0650200
 C  core  0.4083400   0.7366300   0.3097800
 C  core  0.2904900   0.2628300   0.9103600
 C  core  0.1038800   0.0079400   0.6185400
 C  core  0.9561200   0.8553100   0.8844000
 C  core  0.7960900   0.4763400   0.5841500
 C  core  0.6168300   0.4117000   0.6801500
 C  core  0.7870400   0.7132900   0.3417400
 C  core  0.8852400   0.2424300   0.3286000
 C  core  0.6892300   0.1581700   0.1443400
 C  core  0.8691900   0.0342700   0.3643300
 C  core  0.9503200   0.9314200   0.5243700
 C  core  0.5173700   0.0580000   0.1531000
 C  core  0.5492200   0.9779300   0.4988300
 C  core  0.4687900   0.3296000   0.0013000
 C  core  0.9503600   0.3492000   0.4906800
 C  core  0.1592000   0.4195000   0.8331200
 C  core  0.8295900   0.7352800   0.8156100
 C  core  0.9102500   0.9460200   0.0400000
 C  core  0.1437000   0.9160100   0.7999600
 C  core  0.8695700   0.6485000   0.6582300
 C  core  0.8901000   0.1239700   0.7302500
 C  core  0.4965200   0.5954600   0.4141000
 C  core  0.6510500   0.7047800   0.8851100
 C  core  0.6405400   0.5858800   0.0274900
 C  core  0.7883600   0.9772100   0.7187100
 C  core  0.4753800   0.4529400   0.5775400
 C  core  0.3595200   0.6373200   0.1420800
 C  core  0.5895200   0.9539400   0.6942300
 C  core  0.7163400   0.3383900   0.2343500
 C  core  0.0110200   0.1991900   0.1566800
 C  core  0.9711900   0.3937800   0.8985000
 C  core  0.5030600   0.7889800   0.7900000
 C  core  0.8517700   0.1345400   0.0382400
 C  core  0.3539800   0.1771300   0.7138600
 C  core  0.1143700   0.4775900   0.4512900
 C  core  0.1861000   0.1701000   0.0823600
 C  core  0.2818800   0.3972900   0.5186400
 C  core  0.1001900   0.6724500   0.4231800
 C  core  0.9327000   0.4974200   0.0402300
 C  core  0.8355200   0.2430000   0.8753300
 C  core  0.3778900   0.2156900   0.1694200
 C  core  0.3929600   0.1145500   0.5112800
 C  core  0.9771500   0.7096700   0.2699000
 C  core  0.3968600   0.2772200   0.3721000
 C  core  0.5608900   0.3979300   0.3407200
 C  core  0.3057500   0.7647800   0.7915100
 C  core  0.9215000   0.8952800   0.2148000
 C  core  0.7664400   0.4836800   0.1077000
 C  core  0.2528300   0.8030900   0.4170700
 C  core  0.7032900   0.5527600   0.4145500
 C  core  0.9550700   0.7484900   0.5359400
 C  core  0.2289700   0.6055200   0.8687300
 C  core  0.0399600   0.6153500   0.1172200
 C  core  0.6253600   0.2851700   0.8496800
 C  core  0.4373300   0.0161500   0.9719600
 C  core  0.5192000   0.9112700   0.2902200
 C  core  0.2041600   0.6398700   0.0515200
 C  core  0.0363100   0.2088000   0.6171500
 C  core  0.2557400   0.9599800   0.4959500
 C  core  0.7120900   0.8937900   0.3748500
 C  core  0.2415300   0.0123200   0.9560300
 C  core  0.5152800   0.1015100   0.8115300
 C  core  0.1990500   0.3038400   0.6725300

brenner
shrink 8 8 8
output freq text freq_1.0225.out
