phonon
title
ASE calculation
end

cell
14.786361 14.786361 14.786361 90.00000 90.00000 90.00000
frac
C     core     0.308751    0.396857    0.174292
C     core     0.924358    0.014678    0.698932
C     core     0.823331    0.279699    0.213940
C     core     0.335829    0.536529    0.053872
C     core     0.695940    0.971992    0.886902
C     core     0.271061    0.308532    0.506600
C     core     0.108669    0.990119    0.318191
C     core     0.223837    0.965791    0.026299
C     core     0.870328    0.215999    0.875669
C     core     0.082131    0.901300    0.130329
C     core     0.075170    0.603420    0.951939
C     core     0.402409    0.282560    0.811122
C     core     0.522450    0.090837    0.116820
C     core     0.042940    0.488910    0.821238
C     core     0.082110    0.147159    0.410820
C     core     0.071799    0.553580    0.659768
C     core     0.884970    0.135248    0.408790
C     core     0.832691    0.459192    0.977921
C     core     0.604309    0.341120    0.145839
C     core     0.690111    0.878251    0.313651
C     core     0.930181    0.813968    0.307209
C     core     0.843830    0.490820    0.590500
C     core     0.531260    0.766158    0.033761
C     core     0.654279    0.785808    0.745071
C     core     0.813012    0.044889    0.275551
C     core     0.267281    0.038721    0.464501
C     core     0.866909    0.868068    0.533481
C     core     0.363680    0.516078    0.662941
C     core     0.442232    0.803389    0.896887
C     core     0.187550    0.015270    0.775040
C     core     0.866800    0.156691    0.968382
C     core     0.766988    0.739699    0.380799
C     core     0.995250    0.043512    0.619619
C     core     0.019361    0.174391    0.819720
C     core     0.806001    0.590450    0.751240
C     core     0.942500    0.074178    0.133430
C     core     0.213232    0.086820    0.640989
C     core     0.770101    0.842132    0.863151
C     core     0.539352    0.935732    0.163280
C     core     0.544809    0.088560    0.816270
C     core     0.588861    0.015188    0.889691
C     core     0.107371    0.109041    0.206799
C     core     0.270651    0.649731    0.296410
C     core     0.612248    0.471539    0.464419
C     core     0.134899    0.193430    0.473319
C     core     0.601914    0.303816    0.324459
C     core     0.970630    0.370949    0.284702
C     core     0.442201    0.480361    0.421411
C     core     0.785498    0.751640    0.064019
C     core     0.592701    0.458802    0.603729
C     core     0.096050    0.870081    0.882790
C     core     0.690804    0.355571    0.329063
C     core     0.702681    0.692330    0.310639
C     core     0.196670    0.904111    0.619978
C     core     0.716700    0.423132    0.836992
C     core     0.142149    0.451989    0.211202
C     core     0.111100    0.431809    0.977652
C     core     0.488779    0.612510    0.504011
C     core     0.756290    0.457701    0.202509
C     core     0.226361    0.187528    0.362481
C     core     0.159010    0.197230    0.174839
C     core     0.255152    0.972121    0.186859
C     core     0.532740    0.540249    0.440259
C     core     0.758465    0.289100    0.389389
C     core     0.851122    0.529804    0.830291
C     core     0.273321    0.305303    0.209540
C     core     0.069739    0.976098    0.637980
C     core     0.377039    0.387791    0.795651
C     core     0.276631    0.096842    0.380491
C     core     0.552020    0.200398    0.195059
C     core     0.258532    0.578168    0.908621
C     core     0.305239    0.171500    0.908170
C     core     0.370781    0.914459    0.008401
C     core     0.397202    0.528860    0.890001
C     core     0.863109    0.067738    0.627428
C     core     0.928398    0.493959    0.993309
C     core     0.631629    0.557539    0.890353
C     core     0.996169    0.790300    0.015191
C     core     0.557411    0.727061    0.622091
C     core     0.759330    0.218107    0.742151
C     core     0.179849    0.397650    0.058462
C     core     0.588329    0.475040    0.929869
C     core     0.700482    0.895360    0.130950
C     core     0.562659    0.709080    0.241669
C     core     0.914730    0.584269    0.894749
C     core     0.888710    0.310960    0.682761
C     core     0.461518    0.525174    0.230071
C     core     0.182980    0.915341    0.318880
C     core     0.821570    0.749328    0.220932
C     core     0.823939    0.366469    0.025221
C     core     0.766592    0.392869    0.112359
C     core     0.461490    0.734570    0.967661
C     core     0.617090    0.701331    0.022330
C     core     0.489431    0.605187    0.117799
C     core     0.376269    0.893599    0.608769
C     core     0.494059    0.075672    0.985398
C     core     0.175609    0.810061    0.026419
C     core     0.766238    0.461050    0.529110
C     core     0.395421    0.181032    0.279978
C     core     0.201889    0.922169    0.479178
C     core     0.396941    0.135947    0.672452
C     core     0.777240    0.093651    0.994701
C     core     0.481781    0.134329    0.894422
C     core     0.593181    0.935490    0.750250
C     core     0.763293    0.359730    0.549868
C     core     0.160701    0.006101    0.591222
C     core     0.748942    0.566160    0.086820
C     core     0.539161    0.333310    0.405490
C     core     0.920102    0.777992    0.845522
C     core     0.045589    0.907920    0.799541
C     core     0.167587    0.746359    0.608502
C     core     0.953692    0.959051    0.822490
C     core     0.377439    0.093188    0.338962
C     core     0.166370    0.718390    0.779019
C     core     0.866119    0.605360    0.668862
C     core     0.840219    0.210441    0.375258
C     core     0.119918    0.577482    0.488200
C     core     0.086940    0.809600    0.415929
C     core     0.296940    0.530180    0.151259
C     core     0.927030    0.361581    0.771579
C     core     0.857701    0.971382    0.533300
C     core     0.519240    0.240170    0.922821
C     core     0.489221    0.707309    0.458091
C     core     0.451419    0.795343    0.702641
C     core     0.816791    0.197812    0.133280
C     core     0.585060    0.915560    0.601759
C     core     0.334219    0.676668    0.747449
C     core     0.674611    0.318401    0.519170
C     core     0.215300    0.302421    0.292230
C     core     0.648050    0.720179    0.659538
C     core     0.385961    0.699940    0.027649
C     core     0.707411    0.458491    0.737010
C     core     0.007390    0.897039    0.200690
C     core     0.867278    0.865896    0.864522
C     core     0.875591    0.074662    0.779490
C     core     0.202901    0.584189    0.671089
C     core     0.975361    0.167812    0.087769
C     core     0.459218    0.971520    0.012921
C     core     0.184572    0.821141    0.260680
C     core     0.538550    0.419811    0.855811
C     core     0.472331    0.000622    0.117329
C     core     0.156040    0.614509    0.799388
C     core     0.690280    0.946900    0.781020
C     core     0.500771    0.152353    0.273300
C     core     0.263010    0.218991    0.157863
C     core     0.012621    0.295998    0.543451
C     core     0.194201    0.614100    0.349859
C     core     0.259199    0.071559    0.277698
C     core     0.089141    0.278191    0.170098
C     core     0.514533    0.535029    0.585568
C     core     0.018750    0.628750    0.312630
C     core     0.028800    0.575501    0.115759
C     core     0.711333    0.877791    0.950956
C     core     0.577400    0.586620    0.357040
C     core     0.360550    0.750152    0.293551
C     core     0.652610    0.725002    0.894111
C     core     0.423209    0.140889    0.040259
C     core     0.874887    0.344371    0.427361
C     core     0.254860    0.756589    0.305278
C     core     0.651600    0.910050    0.530331
C     core     0.146081    0.290139    0.852302
C     core     0.580130    0.376391    0.491681
C     core     0.751899    0.751728    0.910781
C     core     0.012919    0.864350    0.457542
C     core     0.889510    0.718307    0.432739
C     core     0.359661    0.619010    0.346927
C     core     0.313651    0.006801    0.997910
C     core     0.378810    0.260228    0.347491
C     core     0.507882    0.952521    0.910349
C     core     0.074830    0.274301    0.001930
C     core     0.704939    0.568340    0.724292
C     core     0.220599    0.448970    0.140957
C     core     0.700850    0.317359    0.146971
C     core     0.754640    0.845660    0.379300
C     core     0.948160    0.026601    0.524200
C     core     0.106079    0.676251    0.343581
C     core     0.394341    0.069667    0.593931
C     core     0.481793    0.856646    0.169811
C     core     0.802243    0.297400    0.959392
C     core     0.751139    0.610860    0.992049
C     core     0.264720    0.754212    0.762982
C     core     0.693371    0.534811    0.228552
C     core     0.975512    0.835981    0.762240
C     core     0.400690    0.960460    0.867931
C     core     0.017200    0.799989    0.249471
C     core     0.388757    0.991472    0.181130
C     core     0.993339    0.479171    0.662549
C     core     0.285298    0.374369    0.655369
C     core     0.995878    0.166989    0.256131
C     core     0.620117    0.834598    0.040954
C     core     0.138151    0.016980    0.014091
C     core     0.032961    0.642168    0.505260
C     core     0.669579    0.453646    0.372609
C     core     0.302999    0.396550    0.944370
C     core     0.771150    0.990930    0.728898
C     core     0.557648    0.008601    0.641190
C     core     0.841350    0.092970    0.174160
C     core     0.619131    0.818609    0.932819
C     core     0.441140    0.600835    0.278984
C     core     0.995151    0.630221    0.204030
C     core     0.238751    0.369621    0.417200
C     core     0.358627    0.715381    0.574468
C     core     0.474900    0.366880    0.227829
C     core     0.982370    0.322500    0.961391
C     core     0.659270    0.027650    0.229072
C     core     0.868759    0.764620    0.721210
C     core     0.483709    0.190210    0.659940
C     core     0.792449    0.354681    0.652192
C     core     0.853929    0.827744    0.434640
C     core     0.614679    0.507190    0.295780
C     core     0.915420    0.866699    0.138618
C     core     0.326240    0.088401    0.056882
C     core     0.412801    0.601521    0.048408
C     core     0.229870    0.663470    0.964470
C     core     0.193978    0.911312    0.894019
C     core     0.936191    0.917678    0.925741
C     core     0.232251    0.878079    0.077160
C     core     0.171070    0.416708    0.721051
C     core     0.057730    0.207250    0.326880
C     core     0.887321    0.211079    0.054128
C     core     0.519391    0.233351    0.440860
C     core     0.515790    0.007751    0.744471
C     core     0.712750    0.273400    0.928391
C     core     0.953432    0.294510    0.861109
C     core     0.424850    0.957070    0.766128
C     core     0.546841    0.135951    0.598981
C     core     0.654269    0.170261    0.188520
C     core     0.312928    0.504513    0.959360
C     core     0.317669    0.029441    0.896429
C     core     0.289479    0.841400    0.744609
C     core     0.697900    0.824639    0.527480
C     core     0.659808    0.038340    0.396450
C     core     0.834797    0.710041    0.807378
C     core     0.781881    0.484559    0.889367
C     core     0.649870    0.688581    0.790611
C     core     0.702148    0.144821    0.849221
C     core     0.046861    0.479620    0.166902
C     core     0.351739    0.989694    0.628610
C     core     0.701279    0.229211    0.462009
C     core     0.944019    0.703971    0.338319
C     core     0.436100    0.433600    0.867870
C     core     0.617560    0.555159    0.787618
C     core     0.279772    0.863179    0.571192
C     core     0.302058    0.565659    0.486569
C     core     0.501751    0.401188    0.572239
C     core     0.646158    0.212741    0.361710
C     core     0.382988    0.676597    0.226922
C     core     0.125592    0.760460    0.869610
C     core     0.786800    0.830261    0.590389
C     core     0.941209    0.769891    0.101079
C     core     0.771710    0.228341    0.847569
C     core     0.203850    0.232259    0.541902
C     core     0.782031    0.000990    0.614823
C     core     0.257081    0.403759    0.558619
C     core     0.003498    0.531041    0.914381
C     core     0.908647    0.309730    0.041210
C     core     0.131739    0.375026    0.404789
C     core     0.673138    0.076052    0.137469
C     core     0.876042    0.702292    0.635019
C     core     0.765720    0.086952    0.771976
C     core     0.022338    0.404150    0.103767
C     core     0.979360    0.479252    0.247119
C     core     0.565270    0.837190    0.773701
C     core     0.943544    0.556379    0.719060
C     core     0.963119    0.733088    0.933300
C     core     0.036630    0.128330    0.913641
C     core     0.025531    0.887979    0.962580
C     core     0.309220    0.936351    0.487969
C     core     0.243888    0.548420    0.800920
C     core     0.477959    0.919991    0.457769
C     core     0.712640    0.558452    0.398030
C     core     0.888940    0.033693    0.875977
C     core     0.474139    0.273288    0.729309
C     core     0.681269    0.596623    0.560002
C     core     0.153590    0.262738    0.630211
C     core     0.159000    0.489863    0.647590
C     core     0.850939    0.599029    0.129451
C     core     0.798231    0.397493    0.389796
C     core     0.552970    0.159761    0.367761
C     core     0.411069    0.373759    0.957480
C     core     0.795466    0.009049    0.931598
C     core     0.055569    0.695932    0.911139
C     core     0.503391    0.045958    0.280460
C     core     0.100542    0.158999    0.752662
C     core     0.249049    0.154597    0.040326
C     core     0.602201    0.287701    0.590501
C     core     0.272111    0.003272    0.670569
C     core     0.274051    0.961999    0.294151
C     core     0.599920    0.910170    0.329508
C     core     0.004170    0.068132    0.215539
C     core     0.943220    0.347510    0.128479
C     core     0.573531    0.977429    0.252851
C     core     0.408749    0.108593    0.441607
C     core     0.288409    0.626761    0.191001
C     core     0.859021    0.213240    0.700101
C     core     0.102400    0.706230    0.450849
C     core     0.211020    0.011250    0.873330
C     core     0.416769    0.397231    0.133421
C     core     0.385353    0.874918    0.713621
C     core     0.569389    0.354161    0.049601
C     core     0.802060    0.697382    0.981162
C     core     0.718738    0.748222    0.220712
C     core     0.092479    0.343050    0.601342
C     core     0.362220    0.211569    0.987491
C     core     0.523139    0.828460    0.622608
C     core     0.192590    0.648100    0.054989
C     core     0.760861    0.856731    0.046648
C     core     0.394378    0.842750    0.270123
C     core     0.713749    0.222090    0.110801
C     core     0.049941    0.650630    0.612262
C     core     0.657359    0.587370    0.144199
C     core     0.009860    0.979330    0.268832
C     core     0.934181    0.879272    0.386680
C     core     0.366290    0.922009    0.327000
C     core     0.745119    0.355459    0.240062
C     core     0.347110    0.525419    0.399209
C     core     0.452202    0.858310    0.548700
C     core     0.042982    0.354391    0.454669
C     core     0.789151    0.490023    0.431922
C     core     0.861891    0.039621    0.366691
C     core     0.701891    0.169218    0.286029
C     core     0.203824    0.167832    0.942368
C     core     0.331319    0.852479    0.086239
C     core     0.611269    0.929301    0.090309
C     core     0.745650    0.648938    0.824288
C     core     0.767242    0.064509    0.097819
C     core     0.161091    0.019379    0.487439
C     core     0.211450    0.719901    0.480061
C     core     0.403071    0.350111    0.307178
C     core     0.322238    0.746841    0.079312
C     core     0.683821    0.633121    0.647088
C     core     0.564789    0.553499    0.096360
C     core     0.490872    0.031018    0.464762
C     core     0.709649    0.066860    0.564659
C     core     0.954817    0.489743    0.403589
C     core     0.555049    0.218718    0.539570
C     core     0.251031    0.783211    0.406672
C     core     0.969501    0.829972    0.552690
C     core     0.900290    0.657161    0.972747
C     core     0.700572    0.639996    0.470369
C     core     0.662351    0.748262    0.476959
C     core     0.941762    0.442631    0.583131
C     core     0.477869    0.404289    0.357769
C     core     0.267060    0.185662    0.742062
C     core     0.965679    0.024471    0.041569
C     core     0.212473    0.313371    0.699569
C     core     0.150840    0.426948    0.563139
C     core     0.683918    0.754458    0.090191
C     core     0.449761    0.352513    0.649288
C     core     0.944688    0.978660    0.352979
C     core     0.104520    0.608640    0.051762
C     core     0.316899    0.200181    0.655329
C     core     0.368041    0.268570    0.516520
C     core     0.163878    0.267680    0.948050
C     core     0.573620    0.756661    0.417850
C     core     0.724111    0.302248    0.702381
C     core     0.733101    0.849781    0.764158
C     core     0.569052    0.066959    0.406779
C     core     0.374451    0.412350    0.695431
C     core     0.488878    0.055108    0.564648
C     core     0.550421    0.865140    0.399531
C     core     0.809898    0.847898    0.692351
C     core     0.974138    0.734518    0.598239
C     core     0.854070    0.320247    0.516842
C     core     0.644381    0.688821    0.169720
C     core     0.328341    0.485699    0.558600
C     core     0.605059    0.035349    0.073003
C     core     0.143088    0.670001    0.676888
C     core     0.262488    0.157100    0.580101
C     core     0.733791    0.465580    0.038129
C     core     0.848152    0.591901    0.309818
C     core     0.150630    0.564617    0.896510
C     core     0.131392    0.461752    0.881678
C     core     0.259360    0.848449    0.910311
C     core     0.140188    0.378680    0.290529
C     core     0.086310    0.192023    0.664077
C     core     0.252862    0.689201    0.118690
C     core     0.298071    0.579532    0.718231
C     core     0.053919    0.280840    0.804761
C     core     0.022102    0.525689    0.334360
C     core     0.959048    0.379979    0.388928
C     core     0.837662    0.700329    0.309281
C     core     0.265392    0.756499    0.566018
C     core     0.883841    0.969910    0.994593
C     core     0.315001    0.056938    0.152309
C     core     0.402911    0.258413    0.615359
C     core     0.363010    0.865982    0.913881
C     core     0.739188    0.595701    0.303231
C     core     0.240652    0.334731    0.001318
C     core     0.699400    0.994541    0.481060
C     core     0.054679    0.172198    0.018848
C     core     0.125251    0.832068    0.612781
C     core     0.478161    0.767660    0.800992
C     core     0.069966    0.574921    0.763272
C     core     0.802001    0.995170    0.447090
C     core     0.926810    0.626220    0.478820
C     core     0.008791    0.422609    0.000161
C     core     0.097372    0.334659    0.087060
C     core     0.191559    0.513620    0.337280
C     core     0.413582    0.608530    0.636302
C     core     0.349978    0.798722    0.427450
C     core     0.434016    0.474219    0.529109
C     core     0.476812    0.683290    0.178546
C     core     0.939250    0.129628    0.485221
C     core     0.420061    0.275100    0.924597
C     core     0.209190    0.450602    0.808712
C     core     0.930931    0.583179    0.055802
C     core     0.608741    0.071361    0.975917
C     core     0.698229    0.847128    0.221962
C     core     0.666871    0.220659    0.011129
C     core     0.981977    0.740679    0.708910
C     core     0.281209    0.276070    0.375902
C     core     0.902987    0.563140    0.225710
C     core     0.527511    0.457708    0.270472
C     core     0.026689    0.144568    0.611720
C     core     0.141999    0.084589    0.922527
C     core     0.142310    0.119770    0.052345
C     core     0.329749    0.105599    0.517829
C     core     0.757700    0.162369    0.536751
C     core     0.819850    0.950421    0.224972
C     core     0.460969    0.567730    0.961820
C     core     0.568591    0.313599    0.858521
C     core     0.003649    0.978709    0.446280
C     core     0.159612    0.059589    0.260681
C     core     0.099452    0.966151    0.737740
C     core     0.282770    0.386088    0.841408
C     core     0.496970    0.792104    0.256258
C     core     0.416460    0.770710    0.508221
C     core     0.525821    0.495341    0.013630
C     core     0.310700    0.230949    0.822741
C     core     0.576609    0.463201    0.771231
C     core     0.625938    0.314267    0.687912
C     core     0.601119    0.643929    0.935549
C     core     0.875041    0.551359    0.407590
C     core     0.572922    0.266071    0.765978
C     core     0.917431    0.646535    0.816112
C     core     0.836861    0.158921    0.610110
C     core     0.683411    0.137199    0.715962
C     core     0.600700    0.686109    0.335830
C     core     0.608080    0.166011    0.786599
C     core     0.712469    0.067371    0.307410
C     core     0.510579    0.193970    0.090990
C     core     0.554931    0.301111    0.228531
C     core     0.996970    0.728762    0.179090
C     core     0.638801    0.090202    0.635241
C     core     0.910970    0.331041    0.209730
C     core     0.055251    0.961530    0.038459
C     core     0.502200    0.651070    0.919800
C     core     0.382699    0.110090    0.856449
C     core     0.313130    0.143401    0.213511
C     core     0.225309    0.919898    0.723021
C     core     0.380272    0.618882    0.532219
C     core     0.996001    0.453010    0.495852
C     core     0.490470    0.767573    0.123541
C     core     0.058991    0.309932    0.273161
C     core     0.621001    0.416701    0.690450
C     core     0.644531    0.411991    0.994451
C     core     0.406180    0.711439    0.387929
C     core     0.090753    0.819161    0.057631
C     core     0.288129    0.256171    0.054061
C     core     0.846009    0.942703    0.781606
C     core     0.398361    0.496337    0.167139
C     core     0.377860    0.899659    0.423960
C     core     0.996379    0.650209    0.751791
C     core     0.406219    0.008791    0.284821
C     core     0.564760    0.249251    0.018498
C     core     0.390779    0.609110    0.816739
C     core     0.731121    0.573811    0.902681
C     core     0.538348    0.855808    0.882628
C     core     0.852642    0.711889    0.131450
C     core     0.885023    0.463790    0.754201
C     core     0.277220    0.456401    0.358801
C     core     0.687251    0.132030    0.956409
C     core     0.927087    0.338201    0.586798
C     core     0.794472    0.210358    0.285698
C     core     0.082399    0.346111    0.716319
C     core     0.469511    0.400641    0.042020
C     core     0.209620    0.758799    0.937811
C     core     0.106269    0.478731    0.374698
C     core     0.991510    0.190692    0.536829
C     core     0.556409    0.633401    0.754160
C     core     0.483091    0.664872    0.817531
C     core     0.388380    0.101819    0.761101
C     core     0.917699    0.170728    0.785930
C     core     0.378809    0.885739    0.169748
C     core     0.182849    0.890720    0.172261
C     core     0.097978    0.781039    0.304900
C     core     0.660779    0.357508    0.898939
C     core     0.002449    0.218380    0.173131
C     core     0.012247    0.419410    0.747211
C     core     0.520708    0.628732    0.652661
C     core     0.673409    0.498428    0.547211
C     core     0.802582    0.729471    0.572441
C     core     0.190738    0.113820    0.743190
C     core     0.852419    0.912558    0.069922
C     core     0.782291    0.962442    0.128118
C     core     0.861721    0.849101    0.233581
C     core     0.417248    0.220609    0.439220
C     core     0.213122    0.615620    0.458689
C     core     0.101240    0.475352    0.489604
C     core     0.788836    0.701171    0.477790
C     core     0.911931    0.900312    0.707629
C     core     0.323080    0.408039    0.280571
C     core     0.154909    0.209960    0.286300
C     core     0.946911    0.084098    0.951040
C     core     0.805990    0.453999    0.686158
C     core     0.397910    0.713289    0.673440
C     core     0.179840    0.858860    0.406711
C     core     0.043110    0.880590    0.606239
C     core     0.231300    0.301351    0.801890
C     core     0.872840    0.589510    0.561099
C     core     0.089070    0.037610    0.417460

brenner
dispersion 7 20
0.5 0.0 0.5 to 0.0 0.0 0.5
0.0 0.0 0.5 to 0.0 0.0 0.0
0.0 0.0 0.0 to 0.5 0.0 0.0
0.5 0.0 0.0 to 0.5 0.5 0.0
0.5 0.5 0.0 to 0.5 0.5 0.5
0.5 0.5 0.5 to 0.0 0.5 0.5
0.0 0.5 0.5 to 0.0 0.5 0.0
output phonon 20sp2
