phon noden prop
title
ASE calculation
end

cell
 7.573600  7.573600  7.573600 90.00000 90.00000 90.00000
frac
 C  core  0.4760400   0.5198800   0.0650200
 C  core  0.4126800   0.7391400   0.3048900
 C  core  0.2901500   0.2576400   0.9117600
 C  core  0.1064200   0.0090600   0.6117800
 C  core  0.9672700   0.8535400   0.8800900
 C  core  0.7970400   0.4752800   0.5808100
 C  core  0.6138200   0.4169400   0.6788000
 C  core  0.7932500   0.7115200   0.3296300
 C  core  0.8839600   0.2464100   0.3252300
 C  core  0.6846700   0.1598400   0.1383800
 C  core  0.8770200   0.0369500   0.3539700
 C  core  0.9513900   0.9317100   0.5171900
 C  core  0.5154000   0.0569400   0.1479900
 C  core  0.5557500   0.9806200   0.4948200
 C  core  0.4690900   0.3285300   0.0013000
 C  core  0.9510900   0.3501900   0.4850600
 C  core  0.1611300   0.4171000   0.8299500
 C  core  0.8377200   0.7309700   0.8170500
 C  core  0.9299300   0.9529000   0.0346100
 C  core  0.1487500   0.9128400   0.7888100
 C  core  0.8754700   0.6446500   0.6569400
 C  core  0.8921700   0.1243500   0.7253600
 C  core  0.5038600   0.6017000   0.4121100
 C  core  0.6560300   0.7035300   0.8833800
 C  core  0.6419800   0.5870900   0.0288500
 C  core  0.7936100   0.9726600   0.7209100
 C  core  0.4694800   0.4680400   0.5758200
 C  core  0.3597100   0.6424700   0.1373000
 C  core  0.5949300   0.9510200   0.6892600
 C  core  0.7161400   0.3381000   0.2340100
 C  core  0.0068400   0.1805400   0.1561900
 C  core  0.9711800   0.3956400   0.8927000
 C  core  0.5099300   0.7843600   0.7808600
 C  core  0.8439100   0.1348500   0.0280300
 C  core  0.3554400   0.1734900   0.7104900
 C  core  0.1151700   0.4773500   0.4424700
 C  core  0.1821800   0.1551400   0.0805100
 C  core  0.2820000   0.3989000   0.5156600
 C  core  0.1047200   0.6731500   0.4175100
 C  core  0.9348700   0.4983900   0.0374900
 C  core  0.8337300   0.2476900   0.8677300
 C  core  0.3707900   0.2107800   0.1675100
 C  core  0.3976800   0.1161700   0.5055400
 C  core  0.9833700   0.7184300   0.2629200
 C  core  0.3945300   0.2760000   0.3650500
 C  core  0.5558900   0.3976200   0.3381900
 C  core  0.3143800   0.7605000   0.7763100
 C  core  0.9610900   0.9109400   0.2105900
 C  core  0.7690500   0.4849600   0.1096000
 C  core  0.2570000   0.8044000   0.4119500
 C  core  0.7101200   0.5494700   0.4043300
 C  core  0.9582000   0.7474700   0.5321000
 C  core  0.2338100   0.6036700   0.8585700
 C  core  0.0422200   0.6211200   0.1089300
 C  core  0.6256900   0.2868800   0.8437600
 C  core  0.4415100   0.0076100   0.9669200
 C  core  0.5226900   0.9118800   0.2852000
 C  core  0.2064100   0.6483200   0.0405100
 C  core  0.0373500   0.2097900   0.6104500
 C  core  0.2593900   0.9629500   0.4898700
 C  core  0.7188400   0.8946900   0.3674600
 C  core  0.2460000   0.0006200   0.9515300
 C  core  0.5194900   0.0984400   0.8071700
 C  core  0.2018800   0.3022600   0.6684000

brenner
temperature 10 10 29
shrink 8 8 8
output freq text freq_0.9700.out
