phon noden prop
title
ASE calculation
end

cell
 7.593600  7.593600  7.593600 90.00000 90.00000 90.00000
frac
 C  core  0.0357800   0.5261700   0.3398900
 C  core  0.2398100   0.0561900   0.0749200
 C  core  0.0860100   0.3742400   0.2432400
 C  core  0.8608900   0.9081200   0.4202100
 C  core  0.4481900   0.8611100   0.9541100
 C  core  0.7826000   0.4264900   0.2203100
 C  core  0.9058100   0.5825700   0.6886200
 C  core  0.7969100   0.4985200   0.5575800
 C  core  0.1167800   0.3280700   0.6131300
 C  core  0.3714100   0.7094800   0.0924200
 C  core  0.8687300   0.2032400   0.7159100
 C  core  0.5509900   0.8497700   0.5161900
 C  core  0.4054600   0.1895600   0.5945100
 C  core  0.1770000   0.9301300   0.7731500
 C  core  0.5013900   0.5583400   0.3694200
 C  core  0.9605000   0.8947000   0.0862400
 C  core  0.1250100   0.7659300   0.8420700
 C  core  0.2788000   0.6682000   0.5712000
 C  core  0.7173600   0.3302200   0.6476100
 C  core  0.0256200   0.1983600   0.2409100
 C  core  0.9159700   0.1161400   0.3938900
 C  core  0.8368500   0.5611000   0.3687100
 C  core  0.4414600   0.7730900   0.6425000
 C  core  0.7747600   0.2410200   0.2926600
 C  core  0.6491800   0.1084100   0.9841400
 C  core  0.4840000   0.5469800   0.0512100
 C  core  0.5849900   0.2290600   0.5308100
 C  core  0.6097500   0.9346100   0.0795800
 C  core  0.4610000   0.8622000   0.2153500
 C  core  0.3166500   0.0060100   0.8913300
 C  core  0.7928400   0.0591900   0.8528500
 C  core  0.8456600   0.7149400   0.8036000
 C  core  0.2915300   0.3482400   0.5480500
 C  core  0.1908400   0.6414000   0.1609600
 C  core  0.0583600   0.4570100   0.7535400
 C  core  0.3081600   0.0476600   0.4786000
 C  core  0.1612500   0.6867100   0.3799800
 C  core  0.5208700   0.2576500   0.9175900
 C  core  0.0399500   0.0822200   0.0777700
 C  core  0.7418200   0.8863100   0.7631900
 C  core  0.3659200   0.5051400   0.4834000
 C  core  0.0529400   0.8480000   0.4636700
 C  core  0.0306500   0.3865500   0.9441000
 C  core  0.2020300   0.4308200   0.0815600
 C  core  0.1613500   0.6288700   0.7291000
 C  core  0.8769500   0.4815600   0.0521700
 C  core  0.7773700   0.8103300   0.1149000
 C  core  0.9660600   0.1865000   0.9185100
 C  core  0.7643500   0.7529500   0.3118300
 C  core  0.7886600   0.6474800   0.9845800
 C  core  0.1403100   0.9893600   0.5796800
 C  core  0.4513000   0.2112600   0.2360200
 C  core  0.4047700   0.3394200   0.0748800
 C  core  0.3450900   0.0312200   0.2620100
 C  core  0.6014700   0.2153800   0.3497000
 C  core  0.4035300   0.1536000   0.7936200
 C  core  0.6185500   0.4012500   0.8125400
 C  core  0.7171400   0.9120700   0.5684200
 C  core  0.0827300   0.7603000   0.0259000
 C  core  0.5790400   0.4729300   0.2182800
 C  core  0.5596700   0.7547200   0.3514600
 C  core  0.0086600   0.1578600   0.5747700
 C  core  0.6066400   0.5861300   0.8968500
 C  core  0.5540500   0.7705400   0.8104300

brenner
shrink 8 8 8
output freq text freq_1.0150.out
