phon noden prop
title
ASE calculation
end

cell
 7.646800  7.646800  7.646800 90.00000 90.00000 90.00000
frac
 C  core  0.0251000   0.5871500   0.3653200
 C  core  0.2605500   0.1020200   0.1065100
 C  core  0.0999700   0.4396400   0.2669900
 C  core  0.8792400   0.9673100   0.4526400
 C  core  0.4779800   0.9157200   0.9890600
 C  core  0.7857700   0.4484400   0.2216300
 C  core  0.9192500   0.6338300   0.7177600
 C  core  0.8104000   0.5510300   0.5892100
 C  core  0.1327200   0.3804500   0.6398800
 C  core  0.4058900   0.7634000   0.1173400
 C  core  0.8882300   0.2540100   0.7458300
 C  core  0.5726100   0.8953500   0.5568900
 C  core  0.4253100   0.2407800   0.6319100
 C  core  0.2026700   0.9818900   0.7975100
 C  core  0.5215700   0.6075100   0.4059200
 C  core  0.9890100   0.9371500   0.1191000
 C  core  0.1391300   0.8203600   0.8582800
 C  core  0.3500600   0.6880400   0.6633400
 C  core  0.7372600   0.3820400   0.6830500
 C  core  0.0433200   0.2603400   0.2646000
 C  core  0.9360800   0.1748300   0.4200500
 C  core  0.8439200   0.6142600   0.4152300
 C  core  0.4812100   0.8152200   0.6890300
 C  core  0.7941800   0.2990600   0.3289800
 C  core  0.6682000   0.1576600   0.0144800
 C  core  0.5204800   0.6037100   0.0884900
 C  core  0.6050400   0.2804800   0.5708000
 C  core  0.6356000   0.9869700   0.1175900
 C  core  0.4813400   0.9154900   0.2493500
 C  core  0.3403300   0.0554100   0.9230200
 C  core  0.8089800   0.1103600   0.8820100
 C  core  0.8620300   0.7627800   0.8372000
 C  core  0.3077600   0.3954300   0.5776700
 C  core  0.2286400   0.6870800   0.1235400
 C  core  0.0712400   0.5118700   0.7788600
 C  core  0.3257500   0.1033200   0.5083100
 C  core  0.1186000   0.7420400   0.4240500
 C  core  0.5427300   0.3135100   0.9564800
 C  core  0.0619400   0.1326400   0.1078800
 C  core  0.7689000   0.9395200   0.7957400
 C  core  0.3930200   0.5572000   0.5347100
 C  core  0.0677100   0.8976100   0.4978000
 C  core  0.9980300   0.4290400   0.9541300
 C  core  0.2400100   0.5014100   0.1581000
 C  core  0.1988400   0.6705700   0.7693300
 C  core  0.8898900   0.5186800   0.0815200
 C  core  0.8021200   0.8608200   0.1536700
 C  core  0.9822700   0.2226500   0.9477800
 C  core  0.7763800   0.8044100   0.3490700
 C  core  0.8194700   0.6985400   0.0251600
 C  core  0.1593200   0.0415200   0.6071800
 C  core  0.4780800   0.2633400   0.2760000
 C  core  0.4351600   0.4001800   0.1231700
 C  core  0.3676900   0.0863900   0.2908100
 C  core  0.6244200   0.2670600   0.3920500
 C  core  0.4230400   0.2094700   0.8317600
 C  core  0.6437500   0.4540000   0.8500000
 C  core  0.7380400   0.9632500   0.6020300
 C  core  0.1027300   0.8028800   0.0429800
 C  core  0.6163800   0.5356400   0.2541700
 C  core  0.5739400   0.8072300   0.3884100
 C  core  0.0271300   0.2100200   0.6031400
 C  core  0.6396200   0.6391400   0.9324300
 C  core  0.5884100   0.8224500   0.8524000

brenner
shrink 8 8 8
output freq text freq_1.0150.out
