single
title
ASE calculation
end

cell
 3.552060  3.552060  3.552060 90.00000 90.00000 90.00000
frac
 C  core  0.0000000   0.0000000   0.0000000
 C  core  0.0000000   0.5000000   0.5000000
 C  core  0.5000000   0.5000000   0.0000000
 C  core  0.5000000   0.0000000   0.5000000
 C  core  0.7500000   0.2500000   0.7500000
 C  core  0.2500000   0.2500000   0.2500000
 C  core  0.2500000   0.7500000   0.7500000
 C  core  0.7500000   0.7500000   0.2500000

brenner
maxcyc 2000
output cif single_0.9850.cif
