phon noden prop
title
ASE calculation
end

cell
 7.688900  7.688900  7.688900 90.00000 90.00000 90.00000
frac
 C  core  0.4760400   0.5198800   0.0650200
 C  core  0.4087200   0.7369700   0.3092000
 C  core  0.2906200   0.2623700   0.9104300
 C  core  0.1039100   0.0081100   0.6177200
 C  core  0.9565300   0.8554000   0.8835300
 C  core  0.7957600   0.4764000   0.5837400
 C  core  0.6164500   0.4123300   0.6801300
 C  core  0.7875000   0.7131800   0.3400000
 C  core  0.8849800   0.2430000   0.3280600
 C  core  0.6888400   0.1584600   0.1437700
 C  core  0.8695600   0.0350200   0.3632500
 C  core  0.9503000   0.9315000   0.5232700
 C  core  0.5171900   0.0579000   0.1524600
 C  core  0.5499800   0.9782500   0.4984800
 C  core  0.4690000   0.3294500   0.0012900
 C  core  0.9503900   0.3491500   0.4898700
 C  core  0.1594100   0.4192900   0.8325100
 C  core  0.8298000   0.7352000   0.8152100
 C  core  0.9108800   0.9464300   0.0391500
 C  core  0.1435700   0.9159700   0.7987900
 C  core  0.8697900   0.6482800   0.6577800
 C  core  0.8903900   0.1234600   0.7297100
 C  core  0.4972100   0.5962800   0.4140400
 C  core  0.6511200   0.7047700   0.8846700
 C  core  0.6406300   0.5861600   0.0274500
 C  core  0.7892400   0.9756800   0.7194700
 C  core  0.4746100   0.4545400   0.5774200
 C  core  0.3595200   0.6379500   0.1414800
 C  core  0.5902400   0.9535800   0.6937100
 C  core  0.7161800   0.3386700   0.2343000
 C  core  0.0106400   0.1987500   0.1564000
 C  core  0.9711100   0.3939400   0.8974900
 C  core  0.5031900   0.7886700   0.7889000
 C  core  0.8512800   0.1348500   0.0373700
 C  core  0.3541500   0.1767000   0.7132800
 C  core  0.1143300   0.4774800   0.4502500
 C  core  0.1856900   0.1688200   0.0822500
 C  core  0.2817600   0.3974600   0.5182400
 C  core  0.1006400   0.6724300   0.4224700
 C  core  0.9329000   0.4975100   0.0396100
 C  core  0.8352900   0.2432600   0.8743600
 C  core  0.3771100   0.2151200   0.1692700
 C  core  0.3933800   0.1146300   0.5105000
 C  core  0.9778600   0.7100700   0.2690300
 C  core  0.3964300   0.2769400   0.3711600
 C  core  0.5598000   0.3980000   0.3401400
 C  core  0.3062500   0.7646800   0.7897600
 C  core  0.9230100   0.8960300   0.2141600
 C  core  0.7667000   0.4839800   0.1077400
 C  core  0.2531400   0.8032200   0.4164300
 C  core  0.7039600   0.5523700   0.4130100
 C  core  0.9552600   0.7483900   0.5352300
 C  core  0.2294300   0.6054400   0.8673800
 C  core  0.0403100   0.6157600   0.1161800
 C  core  0.6256500   0.2852800   0.8489400
 C  core  0.4376800   0.0152400   0.9713500
 C  core  0.5194600   0.9113600   0.2895400
 C  core  0.2044200   0.6408200   0.0501500
 C  core  0.0362900   0.2088800   0.6162700
 C  core  0.2559400   0.9603300   0.4952500
 C  core  0.7127500   0.8938200   0.3737700
 C  core  0.2417800   0.0111100   0.9555900
 C  core  0.5157600   0.1012100   0.8109900
 C  core  0.1992600   0.3035900   0.6719100

brenner
shrink 8 8 8
output freq text freq_1.0150.out
