phon noden prop
title
ASE calculation
end

cell
 7.557900  7.557900  7.557900 90.00000 90.00000 90.00000
frac
 C  core  0.0251000   0.5871500   0.3653200
 C  core  0.2622700   0.1022900   0.1081400
 C  core  0.1001700   0.4381000   0.2679400
 C  core  0.8788500   0.9665900   0.4528400
 C  core  0.4768000   0.9176800   0.9885600
 C  core  0.7872800   0.4467300   0.2197300
 C  core  0.9237700   0.6381800   0.7168400
 C  core  0.8100400   0.5552000   0.5904000
 C  core  0.1315500   0.3798600   0.6382900
 C  core  0.4039900   0.7646700   0.1175200
 C  core  0.8899600   0.2575100   0.7467500
 C  core  0.5692500   0.9016900   0.5574300
 C  core  0.4256800   0.2407800   0.6324900
 C  core  0.1994000   0.9839900   0.7988500
 C  core  0.5233900   0.6086300   0.4068200
 C  core  0.9874900   0.9382400   0.1217600
 C  core  0.1337500   0.8216300   0.8582000
 C  core  0.3472500   0.6904200   0.6622200
 C  core  0.7383300   0.3845200   0.6834400
 C  core  0.0471400   0.2575200   0.2666800
 C  core  0.9360300   0.1729200   0.4197600
 C  core  0.8431400   0.6161200   0.4148200
 C  core  0.4778400   0.8196800   0.6900300
 C  core  0.7940600   0.2961100   0.3269700
 C  core  0.6695800   0.1617300   0.0179500
 C  core  0.5204300   0.6047600   0.0881400
 C  core  0.6062700   0.2804100   0.5714800
 C  core  0.6335100   0.9899800   0.1193000
 C  core  0.4786500   0.9160900   0.2516100
 C  core  0.3391800   0.0568600   0.9230400
 C  core  0.8104400   0.1135100   0.8845600
 C  core  0.8691400   0.7683800   0.8382200
 C  core  0.3073900   0.3951600   0.5752600
 C  core  0.2262800   0.6868000   0.1233600
 C  core  0.0716800   0.5095600   0.7793600
 C  core  0.3262500   0.1017200   0.5099000
 C  core  0.1227000   0.7408400   0.4238000
 C  core  0.5424900   0.3151300   0.9572400
 C  core  0.0637100   0.1309700   0.1095000
 C  core  0.7696900   0.9426500   0.7970000
 C  core  0.3927000   0.5583300   0.5339900
 C  core  0.0682200   0.8961900   0.4989700
 C  core  0.0025000   0.4286800   0.9549400
 C  core  0.2383400   0.5002500   0.1558500
 C  core  0.1949500   0.6722600   0.7678300
 C  core  0.8936900   0.5199600   0.0818900
 C  core  0.7995100   0.8634200   0.1557700
 C  core  0.9865400   0.2217600   0.9495200
 C  core  0.7753900   0.8054700   0.3503400
 C  core  0.8221400   0.7008000   0.0254200
 C  core  0.1588500   0.0414200   0.6081400
 C  core  0.4754500   0.2636700   0.2767200
 C  core  0.4341100   0.3990700   0.1228200
 C  core  0.3651700   0.0865300   0.2954200
 C  core  0.6240400   0.2659800   0.3915200
 C  core  0.4220700   0.2116800   0.8323000
 C  core  0.6437800   0.4560500   0.8503400
 C  core  0.7368300   0.9686400   0.6027500
 C  core  0.0984800   0.8021500   0.0437600
 C  core  0.6180200   0.5360700   0.2543600
 C  core  0.5727400   0.8095000   0.3902800
 C  core  0.0269000   0.2079800   0.6021700
 C  core  0.6411800   0.6420300   0.9321000
 C  core  0.5886800   0.8250800   0.8522200

brenner
shrink 8 8 8
output freq text freq_0.9800.out
