phon noden prop
title
ASE calculation
end

cell
 7.479700  7.479700  7.479700 90.00000 90.00000 90.00000
frac
 C  core  0.0357800   0.5261700   0.3398900
 C  core  0.2393300   0.0616500   0.0718700
 C  core  0.0900800   0.3744800   0.2424600
 C  core  0.8578700   0.9095900   0.4143000
 C  core  0.4447900   0.8653200   0.9487300
 C  core  0.7850000   0.4268400   0.2108500
 C  core  0.9048800   0.5876500   0.6808400
 C  core  0.7923000   0.5030800   0.5509600
 C  core  0.1124800   0.3301900   0.6037500
 C  core  0.3689500   0.7122600   0.0877900
 C  core  0.8661300   0.2087100   0.7105900
 C  core  0.5458300   0.8603200   0.5109500
 C  core  0.4026600   0.1898500   0.5878200
 C  core  0.1704200   0.9335700   0.7707900
 C  core  0.5028900   0.5600400   0.3662900
 C  core  0.9562500   0.8987200   0.0830300
 C  core  0.1203800   0.7672800   0.8395800
 C  core  0.2805200   0.6712600   0.5706000
 C  core  0.7143700   0.3335400   0.6404400
 C  core  0.0298700   0.1977100   0.2395800
 C  core  0.9127700   0.1170600   0.3879100
 C  core  0.8342800   0.5634300   0.3616700
 C  core  0.4374300   0.7821300   0.6388200
 C  core  0.7725200   0.2393800   0.2815400
 C  core  0.6469500   0.1156400   0.9827000
 C  core  0.4824800   0.5493400   0.0457800
 C  core  0.5832500   0.2294600   0.5230200
 C  core  0.6051500   0.9403400   0.0768600
 C  core  0.4565200   0.8644000   0.2136500
 C  core  0.3129700   0.0099800   0.8867700
 C  core  0.7908700   0.0651100   0.8502900
 C  core  0.8491300   0.7229800   0.7973800
 C  core  0.2883900   0.3489900   0.5386600
 C  core  0.1880700   0.6445300   0.1552700
 C  core  0.0566600   0.4588700   0.7462900
 C  core  0.3050500   0.0451400   0.4753800
 C  core  0.1603100   0.6891800   0.3777500
 C  core  0.5172300   0.2622400   0.9118100
 C  core  0.0382000   0.0844800   0.0731100
 C  core  0.7413800   0.8936400   0.7585600
 C  core  0.3648900   0.5077000   0.4786100
 C  core  0.0487000   0.8476700   0.4613900
 C  core  0.0304900   0.3890000   0.9366100
 C  core  0.1997500   0.4311100   0.0751900
 C  core  0.1641400   0.6291100   0.7282000
 C  core  0.8780300   0.4860800   0.0433900
 C  core  0.7722800   0.8148500   0.1102600
 C  core  0.9668500   0.1902000   0.9147400
 C  core  0.7619400   0.7550900   0.3066400
 C  core  0.7875700   0.6527200   0.9773500
 C  core  0.1357800   0.9903500   0.5771300
 C  core  0.4437900   0.2129000   0.2285700
 C  core  0.3987700   0.3427500   0.0679700
 C  core  0.3391500   0.0314200   0.2627100
 C  core  0.5979800   0.2166300   0.3398400
 C  core  0.4002100   0.1570800   0.7874900
 C  core  0.6148000   0.4056100   0.8051500
 C  core  0.7139700   0.9233400   0.5631400
 C  core  0.0765000   0.7612400   0.0235500
 C  core  0.5792200   0.4735000   0.2134500
 C  core  0.5579700   0.7578000   0.3487400
 C  core  0.0048800   0.1581800   0.5688700
 C  core  0.6048900   0.5905100   0.8900900
 C  core  0.5518000   0.7754000   0.8052700

brenner
shrink 8 8 8
output freq text freq_0.9700.out
