conv opti lbfgs isotropic
title
ASE calculation
end

cell
 7.479658  7.479658  7.479658 90.00000 90.00000 90.00000
frac
 C  core  0.0357800   0.5261700   0.3398900
 C  core  0.2295900   0.0624700   0.0706800
 C  core  0.0867400   0.3725800   0.2415400
 C  core  0.8498900   0.9083600   0.4224600
 C  core  0.4412800   0.8737200   0.9475900
 C  core  0.7874400   0.4295300   0.2186200
 C  core  0.9019600   0.5951100   0.6844400
 C  core  0.7922500   0.5109900   0.5539500
 C  core  0.1093300   0.3413700   0.5974500
 C  core  0.3685600   0.7201000   0.0872700
 C  core  0.8592400   0.2097700   0.7082700
 C  core  0.5441000   0.8613100   0.5088800
 C  core  0.3998100   0.1999700   0.5858700
 C  core  0.1695800   0.9464400   0.7651700
 C  core  0.4985000   0.5624800   0.3658900
 C  core  0.9508100   0.8984200   0.0792800
 C  core  0.1169900   0.7790300   0.8313000
 C  core  0.2735700   0.6862300   0.5636800
 C  core  0.7073200   0.3446400   0.6424100
 C  core  0.0196100   0.1973400   0.2393500
 C  core  0.9149600   0.1137700   0.3924900
 C  core  0.8376300   0.5648600   0.3660200
 C  core  0.4329800   0.7896500   0.6341000
 C  core  0.7692600   0.2400600   0.2929900
 C  core  0.6439300   0.1199100   0.9794900
 C  core  0.4857300   0.5544900   0.0479400
 C  core  0.5772000   0.2414100   0.5264100
 C  core  0.6014200   0.9450800   0.0738700
 C  core  0.4563000   0.8735200   0.2098700
 C  core  0.3050500   0.0222200   0.8850800
 C  core  0.7838800   0.0700200   0.8501900
 C  core  0.8451500   0.7261300   0.8036700
 C  core  0.2772500   0.3596500   0.5260100
 C  core  0.1922400   0.6513600   0.1470200
 C  core  0.0598000   0.4661900   0.7451600
 C  core  0.2994000   0.0590800   0.4688300
 C  core  0.1581200   0.6906400   0.3653000
 C  core  0.5108100   0.2709500   0.9093100
 C  core  0.0302600   0.0846900   0.0747600
 C  core  0.7313500   0.8981600   0.7602400
 C  core  0.3545300   0.5188500   0.4677000
 C  core  0.0505300   0.8566800   0.4570300
 C  core  0.0327100   0.3910200   0.9359000
 C  core  0.1983500   0.4324000   0.0800300
 C  core  0.1566300   0.6411200   0.7184400
 C  core  0.8781800   0.4820200   0.0508500
 C  core  0.7706700   0.8160500   0.1118800
 C  core  0.9565700   0.1953600   0.9138200
 C  core  0.7605800   0.7578300   0.3090700
 C  core  0.7844600   0.6523700   0.9793500
 C  core  0.1348600   0.0016100   0.5673600
 C  core  0.4493400   0.2219500   0.2305200
 C  core  0.3987900   0.3531200   0.0688200
 C  core  0.3406800   0.0479100   0.2569400
 C  core  0.5983600   0.2214200   0.3468000
 C  core  0.3912900   0.1709800   0.7866200
 C  core  0.6081900   0.4151700   0.8044600
 C  core  0.7069800   0.9253800   0.5640500
 C  core  0.0705500   0.7629200   0.0125200
 C  core  0.5789500   0.4714100   0.2189300
 C  core  0.5584700   0.7605100   0.3484300
 C  core  0.9986800   0.1764000   0.5726200
 C  core  0.6028000   0.5966100   0.8962300
 C  core  0.5457600   0.7857000   0.8048300

brenner
maxcyc 2000
output cif opti_0.9700.cif
