phon noden prop
title
ASE calculation
end

cell
 7.612400  7.612400  7.612400 90.00000 90.00000 90.00000
frac
 C  core  0.4760400   0.5198800   0.0650200
 C  core  0.4105600   0.7386200   0.3063200
 C  core  0.2906700   0.2603400   0.9109400
 C  core  0.1047800   0.0089000   0.6148000
 C  core  0.9600200   0.8537200   0.8812500
 C  core  0.7962800   0.4755300   0.5809900
 C  core  0.6151600   0.4150300   0.6792600
 C  core  0.7898100   0.7132800   0.3330500
 C  core  0.8842000   0.2457400   0.3262500
 C  core  0.6867800   0.1599500   0.1406900
 C  core  0.8714500   0.0382700   0.3592800
 C  core  0.9510900   0.9318800   0.5189000
 C  core  0.5161800   0.0578600   0.1492200
 C  core  0.5521800   0.9794900   0.4958100
 C  core  0.4695200   0.3289100   0.0011400
 C  core  0.9505200   0.3500400   0.4870200
 C  core  0.1603100   0.4183400   0.8302800
 C  core  0.8329100   0.7320600   0.8146500
 C  core  0.9144800   0.9477600   0.0360200
 C  core  0.1446200   0.9148000   0.7941300
 C  core  0.8724700   0.6460700   0.6559300
 C  core  0.8912200   0.1231400   0.7267200
 C  core  0.5007600   0.6002600   0.4131700
 C  core  0.6527300   0.7035300   0.8825200
 C  core  0.6411500   0.5870200   0.0276200
 C  core  0.7910400   0.9732100   0.7195300
 C  core  0.4714500   0.4629800   0.5765900
 C  core  0.3595800   0.6407500   0.1387400
 C  core  0.5920600   0.9519600   0.6904900
 C  core  0.7158100   0.3394800   0.2340800
 C  core  0.0085000   0.1946200   0.1554600
 C  core  0.9708800   0.3949200   0.8935800
 C  core  0.5058000   0.7862800   0.7834000
 C  core  0.8486100   0.1355900   0.0329000
 C  core  0.3547200   0.1751500   0.7110900
 C  core  0.1147300   0.4772400   0.4462200
 C  core  0.1835400   0.1627200   0.0816300
 C  core  0.2819800   0.3983500   0.5167100
 C  core  0.1030900   0.6724500   0.4196000
 C  core  0.9339500   0.4980300   0.0374000
 C  core  0.8345000   0.2450000   0.8702600
 C  core  0.3734400   0.2128800   0.1683800
 C  core  0.3952000   0.1159800   0.5071700
 C  core  0.9812800   0.7119600   0.2656300
 C  core  0.3950200   0.2765200   0.3669400
 C  core  0.5563100   0.3985500   0.3382600
 C  core  0.3096400   0.7632000   0.7816700
 C  core  0.9301500   0.8995000   0.2121200
 C  core  0.7680300   0.4851800   0.1083100
 C  core  0.2549300   0.8039200   0.4137400
 C  core  0.7072200   0.5510800   0.4070900
 C  core  0.9566500   0.7480100   0.5324700
 C  core  0.2316900   0.6047500   0.8615600
 C  core  0.0420800   0.6178600   0.1117400
 C  core  0.6262700   0.2859100   0.8456000
 C  core  0.4392900   0.0111500   0.9684500
 C  core  0.5206400   0.9119800   0.2859600
 C  core  0.2056800   0.6452700   0.0440000
 C  core  0.0364500   0.2096000   0.6125400
 C  core  0.2574000   0.9619100   0.4922700
 C  core  0.7154300   0.8945000   0.3688800
 C  core  0.2431700   0.0058000   0.9537300
 C  core  0.5175300   0.0997500   0.8083400
 C  core  0.2003800   0.3028900   0.6694500

brenner
temperature 10 10 29
shrink 8 8 8
output freq text freq_0.9850.out
