phon noden prop
title
ASE calculation
end

cell
 7.596300  7.596300  7.596300 90.00000 90.00000 90.00000
frac
 C  core  0.0251000   0.5871500   0.3653200
 C  core  0.2615400   0.1024000   0.1075100
 C  core  0.1000000   0.4389300   0.2674200
 C  core  0.8791000   0.9671100   0.4527600
 C  core  0.4772400   0.9170000   0.9889700
 C  core  0.7866000   0.4477100   0.2206800
 C  core  0.9219900   0.6365800   0.7173300
 C  core  0.8103200   0.5536500   0.5900500
 C  core  0.1321100   0.3802800   0.6392400
 C  core  0.4047100   0.7643500   0.1176900
 C  core  0.8893200   0.2562400   0.7464300
 C  core  0.5708200   0.8991100   0.5573400
 C  core  0.4255800   0.2409900   0.6323500
 C  core  0.2008700   0.9833300   0.7982600
 C  core  0.5226000   0.6083800   0.4066300
 C  core  0.9880700   0.9380900   0.1206500
 C  core  0.1360200   0.8213800   0.8582500
 C  core  0.3484500   0.6896400   0.6628400
 C  core  0.7379700   0.3837000   0.6834000
 C  core  0.0454900   0.2589100   0.2657900
 C  core  0.9361200   0.1739200   0.4199600
 C  core  0.8435100   0.6155100   0.4151400
 C  core  0.4793500   0.8179500   0.6897000
 C  core  0.7941800   0.2976800   0.3280400
 C  core  0.6691800   0.1600600   0.0164700
 C  core  0.5202800   0.6044900   0.0885700
 C  core  0.6058000   0.2807000   0.5713500
 C  core  0.6344300   0.9888700   0.1186200
 C  core  0.4798600   0.9160700   0.2508200
 C  core  0.3396900   0.0564200   0.9231200
 C  core  0.8100000   0.1123400   0.8835100
 C  core  0.8662600   0.7662100   0.8379100
 C  core  0.3075800   0.3955100   0.5765300
 C  core  0.2271600   0.6872700   0.1235000
 C  core  0.0715200   0.5107100   0.7793800
 C  core  0.3261000   0.1026900   0.5091800
 C  core  0.1209200   0.7414500   0.4238600
 C  core  0.5427900   0.3143900   0.9569300
 C  core  0.0629900   0.1319000   0.1088900
 C  core  0.7695800   0.9415300   0.7965400
 C  core  0.3928300   0.5580700   0.5344700
 C  core  0.0681100   0.8969800   0.4984100
 C  core  0.0005800   0.4290500   0.9547100
 C  core  0.2387900   0.5011100   0.1566600
 C  core  0.1966300   0.6717800   0.7686100
 C  core  0.8919400   0.5195900   0.0817700
 C  core  0.8006300   0.8624700   0.1549100
 C  core  0.9848100   0.2223600   0.9488600
 C  core  0.7758900   0.8052000   0.3498500
 C  core  0.8208300   0.7000100   0.0253000
 C  core  0.1591300   0.0416700   0.6077100
 C  core  0.4768000   0.2636700   0.2765100
 C  core  0.4352400   0.3992900   0.1228200
 C  core  0.3663300   0.0867400   0.2935400
 C  core  0.6243000   0.2666600   0.3919300
 C  core  0.4225800   0.2108600   0.8321300
 C  core  0.6438500   0.4552800   0.8503100
 C  core  0.7374900   0.9664300   0.6025300
 C  core  0.1002600   0.8028300   0.0434300
 C  core  0.6173100   0.5361400   0.2544900
 C  core  0.5733300   0.8087100   0.3896000
 C  core  0.0271000   0.2090200   0.6026000
 C  core  0.6402800   0.6408000   0.9324800
 C  core  0.5884300   0.8240400   0.8525000

brenner
shrink 8 8 8
output freq text freq_0.9950.out
