conv opti lbfgs isotropic
title
ASE calculation
end

cell
 7.526672  7.526672  7.526672 90.00000 90.00000 90.00000
frac
 C  core  0.0828600   0.5464200   0.4204700
 C  core  0.3004700   0.0984800   0.1580500
 C  core  0.1354300   0.3973200   0.3214000
 C  core  0.9054900   0.9259200   0.5005300
 C  core  0.4964700   0.8883300   0.0332500
 C  core  0.8167800   0.4412700   0.2902300
 C  core  0.9457700   0.6078200   0.7617800
 C  core  0.8403200   0.5195900   0.6298200
 C  core  0.1528900   0.3481600   0.6887900
 C  core  0.4173600   0.7333600   0.1681200
 C  core  0.9129500   0.2223700   0.7896800
 C  core  0.5946600   0.8739700   0.5939100
 C  core  0.4507100   0.2128200   0.6669700
 C  core  0.2229200   0.9599200   0.8554400
 C  core  0.5447900   0.5756800   0.4474900
 C  core  0.0118800   0.9233900   0.1680100
 C  core  0.1704500   0.7930900   0.9218900
 C  core  0.3240400   0.6923500   0.6519300
 C  core  0.7626700   0.3474700   0.7131600
 C  core  0.0649200   0.2260200   0.3167000
 C  core  0.9390200   0.1372300   0.4529600
 C  core  0.8829900   0.5731600   0.4398800
 C  core  0.4833800   0.7992800   0.7214100
 C  core  0.8002200   0.2351400   0.3022700
 C  core  0.7202700   0.1519400   0.1119600
 C  core  0.5294700   0.5709400   0.1231600
 C  core  0.6239500   0.2642600   0.5823700
 C  core  0.6615000   0.9580000   0.1595100
 C  core  0.5107000   0.8752000   0.2968200
 C  core  0.3681700   0.0347400   0.9721700
 C  core  0.8380100   0.0849700   0.9403000
 C  core  0.8870200   0.7413000   0.8784900
 C  core  0.3299200   0.3692200   0.6250000
 C  core  0.2349100   0.6659300   0.2372000
 C  core  0.0978200   0.4820800   0.8282300
 C  core  0.3573000   0.0594300   0.5616200
 C  core  0.2055600   0.7093800   0.4587900
 C  core  0.5778300   0.2836500   0.0002000
 C  core  0.0962500   0.1113400   0.1548500
 C  core  0.7833000   0.9163100   0.8457000
 C  core  0.4063600   0.5269000   0.5615400
 C  core  0.0946900   0.8652000   0.5482600
 C  core  0.0722300   0.4128200   0.0176800
 C  core  0.2382400   0.4554100   0.1519600
 C  core  0.2037400   0.6544200   0.8074200
 C  core  0.9188300   0.5045300   0.1262200
 C  core  0.8280500   0.8334200   0.1938200
 C  core  0.0175600   0.2129500   0.9925700
 C  core  0.8127100   0.7695700   0.3893700
 C  core  0.8359400   0.6737400   0.0626100
 C  core  0.1850600   0.0094300   0.6591700
 C  core  0.4576300   0.2168100   0.2740900
 C  core  0.4314100   0.3783700   0.1341900
 C  core  0.3877500   0.0280600   0.3566100
 C  core  0.6201200   0.2434700   0.4013800
 C  core  0.4672900   0.1744400   0.8695800
 C  core  0.6710600   0.4254500   0.8850900
 C  core  0.7600100   0.9425600   0.6482500
 C  core  0.1307200   0.7869500   0.1055400
 C  core  0.6146300   0.4881100   0.2927700
 C  core  0.6093500   0.7702500   0.4324300
 C  core  0.0473800   0.1708100   0.6407600
 C  core  0.6546200   0.6124000   0.9695000
 C  core  0.5970000   0.7957100   0.8880700

brenner
maxcyc 2000
output cif opti_0.9950.cif
