phon noden prop
title
ASE calculation
end

cell
 7.574800  7.574800  7.574800 90.00000 90.00000 90.00000
frac
 C  core  0.0357800   0.5261700   0.3398900
 C  core  0.2397100   0.0571100   0.0743100
 C  core  0.0866300   0.3743400   0.2430200
 C  core  0.8603400   0.9084900   0.4192000
 C  core  0.4476300   0.8619200   0.9531800
 C  core  0.7829000   0.4266600   0.2187700
 C  core  0.9055900   0.5834800   0.6873000
 C  core  0.7961000   0.4993400   0.5564600
 C  core  0.1159900   0.3284800   0.6115400
 C  core  0.3709700   0.7100900   0.0916200
 C  core  0.8682500   0.2041300   0.7149900
 C  core  0.5501100   0.8514700   0.5153400
 C  core  0.4049400   0.1897100   0.5933700
 C  core  0.1759400   0.9307400   0.7726700
 C  core  0.5015100   0.5587500   0.3688000
 C  core  0.9598100   0.8954600   0.0857000
 C  core  0.1242600   0.7662300   0.8416600
 C  core  0.2791000   0.6687400   0.5711600
 C  core  0.7168500   0.3308300   0.6464300
 C  core  0.0262400   0.1983500   0.2405600
 C  core  0.9154500   0.1163400   0.3928400
 C  core  0.8364100   0.5615600   0.3675500
 C  core  0.4407700   0.7745400   0.6419000
 C  core  0.7743600   0.2408900   0.2908900
 C  core  0.6487500   0.1096600   0.9838300
 C  core  0.4836900   0.5475000   0.0502600
 C  core  0.5846500   0.2292300   0.5295500
 C  core  0.6090100   0.9356200   0.0791200
 C  core  0.4602400   0.8627000   0.2150200
 C  core  0.3160400   0.0067400   0.8905000
 C  core  0.7923600   0.0601100   0.8523000
 C  core  0.8461500   0.7163000   0.8025600
 C  core  0.2909200   0.3484300   0.5464300
 C  core  0.1904000   0.6420400   0.1601100
 C  core  0.0579700   0.4573800   0.7522900
 C  core  0.3075900   0.0473700   0.4779300
 C  core  0.1610700   0.6871700   0.3797000
 C  core  0.5202300   0.2585000   0.9166100
 C  core  0.0396900   0.0826800   0.0769400
 C  core  0.7416800   0.8875300   0.7623800
 C  core  0.3656200   0.5056400   0.4825000
 C  core  0.0521900   0.8480200   0.4632400
 C  core  0.0303900   0.3869400   0.9427000
 C  core  0.2020100   0.4309900   0.0806600
 C  core  0.1617600   0.6289500   0.7289500
 C  core  0.8770900   0.4823500   0.0507400
 C  core  0.7765600   0.8111600   0.1141200
 C  core  0.9662200   0.1871900   0.9178400
 C  core  0.7639100   0.7533900   0.3109500
 C  core  0.7884500   0.6484000   0.9834000
 C  core  0.1395400   0.9895900   0.5791900
 C  core  0.4501100   0.2116600   0.2348000
 C  core  0.4037900   0.3400400   0.0737500
 C  core  0.3440900   0.0314200   0.2620900
 C  core  0.6008900   0.2156700   0.3481200
 C  core  0.4029200   0.1542900   0.7925700
 C  core  0.6179300   0.4020500   0.8113200
 C  core  0.7165800   0.9138700   0.5675300
 C  core  0.0817700   0.7605700   0.0255300
 C  core  0.5790300   0.4732000   0.2174200
 C  core  0.5593100   0.7553500   0.3509500
 C  core  0.0080100   0.1579700   0.5737300
 C  core  0.6063100   0.5869500   0.8957100
 C  core  0.5536100   0.7713800   0.8095700

brenner
shrink 8 8 8
output freq text freq_1.0075.out
