phon noden prop
title
ASE calculation
end

cell
 7.537000  7.537000  7.537000 90.00000 90.00000 90.00000
frac
 C  core  0.0357800   0.5261700   0.3398900
 C  core  0.2398000   0.0584700   0.0735000
 C  core  0.0880200   0.3743500   0.2428600
 C  core  0.8594700   0.9088400   0.4174600
 C  core  0.4467500   0.8629900   0.9515900
 C  core  0.7838900   0.4265300   0.2159500
 C  core  0.9053900   0.5848100   0.6849900
 C  core  0.7947200   0.5005100   0.5545100
 C  core  0.1147700   0.3288800   0.6087100
 C  core  0.3704300   0.7107700   0.0903200
 C  core  0.8676300   0.2055400   0.7135100
 C  core  0.5485500   0.8546200   0.5138800
 C  core  0.4042200   0.1895100   0.5914300
 C  core  0.1740100   0.9315700   0.7720400
 C  core  0.5021500   0.5591000   0.3679900
 C  core  0.9586100   0.8965600   0.0848600
 C  core  0.1229000   0.7663900   0.8410100
 C  core  0.2798000   0.6694400   0.5711300
 C  core  0.7160800   0.3315700   0.6443500
 C  core  0.0278300   0.1980000   0.2402800
 C  core  0.9146600   0.1164400   0.3910900
 C  core  0.8356100   0.5621800   0.3655400
 C  core  0.4395900   0.7771200   0.6409100
 C  core  0.7738300   0.2401700   0.2875900
 C  core  0.6482300   0.1117000   0.9835500
 C  core  0.4833900   0.5480000   0.0487200
 C  core  0.5842900   0.2290300   0.5273100
 C  core  0.6077300   0.9372000   0.0784400
 C  core  0.4589900   0.8631900   0.2146500
 C  core  0.3150500   0.0077100   0.8891700
 C  core  0.7918200   0.0615800   0.8515700
 C  core  0.8473600   0.7185800   0.8007600
 C  core  0.2900800   0.3483900   0.5436100
 C  core  0.1897700   0.6429900   0.1584200
 C  core  0.0575400   0.4577000   0.7501200
 C  core  0.3067900   0.0462800   0.4770400
 C  core  0.1608800   0.6878600   0.3791400
 C  core  0.5192600   0.2596800   0.9149700
 C  core  0.0394300   0.0832000   0.0756600
 C  core  0.7416700   0.8895700   0.7610400
 C  core  0.3654400   0.5061800   0.4811200
 C  core  0.0509500   0.8477700   0.4626000
 C  core  0.0304700   0.3874800   0.9404300
 C  core  0.2018500   0.4309600   0.0788900
 C  core  0.1628000   0.6287400   0.7288100
 C  core  0.8776900   0.4835500   0.0481700
 C  core  0.7751000   0.8123900   0.1128500
 C  core  0.9668900   0.1882300   0.9168300
 C  core  0.7632200   0.7539000   0.3095200
 C  core  0.7883100   0.6498200   0.9813400
 C  core  0.1382700   0.9896700   0.5785200
 C  core  0.4479200   0.2119300   0.2326600
 C  core  0.4021400   0.3407800   0.0717700
 C  core  0.3423800   0.0312500   0.2625500
 C  core  0.5999800   0.2158000   0.3452100
 C  core  0.4020200   0.1551400   0.7908000
 C  core  0.6169500   0.4031500   0.8091800
 C  core  0.7156800   0.9172100   0.5660200
 C  core  0.0799100   0.7606400   0.0249400
 C  core  0.5793100   0.4732000   0.2160900
 C  core  0.5588600   0.7561700   0.3502700
 C  core  0.0070000   0.1577900   0.5720200
 C  core  0.6059600   0.5880600   0.8937200
 C  core  0.5530100   0.7726000   0.8080800

brenner
shrink 8 8 8
output freq text freq_0.9925.out
