phon noden prop
title
ASE calculation
end

cell
 7.612200  7.612200  7.612200 90.00000 90.00000 90.00000
frac
 C  core  0.0357800   0.5261700   0.3398900
 C  core  0.2398100   0.0556300   0.0751300
 C  core  0.0854000   0.3742600   0.2432700
 C  core  0.8613300   0.9079400   0.4208500
 C  core  0.4486400   0.8606000   0.9546700
 C  core  0.7821800   0.4265600   0.2214300
 C  core  0.9059700   0.5819400   0.6895300
 C  core  0.7976100   0.4979700   0.5583400
 C  core  0.1174400   0.3279300   0.6143100
 C  core  0.3716900   0.7091300   0.0928400
 C  core  0.8690300   0.2026300   0.7164500
 C  core  0.5517700   0.8483100   0.5166400
 C  core  0.4058500   0.1896800   0.5952200
 C  core  0.1779500   0.9297700   0.7732900
 C  core  0.5011600   0.5581300   0.3696300
 C  core  0.9610900   0.8942000   0.0864200
 C  core  0.1256900   0.7659000   0.8421600
 C  core  0.2784600   0.6679000   0.5709600
 C  core  0.7177300   0.3298900   0.6484000
 C  core  0.0249000   0.1985400   0.2409400
 C  core  0.9163400   0.1161300   0.3945500
 C  core  0.8372500   0.5607800   0.3694700
 C  core  0.4420600   0.7719200   0.6427300
 C  core  0.7750400   0.2413400   0.2939400
 C  core  0.6494200   0.1074600   0.9840800
 C  core  0.4842100   0.5467500   0.0517500
 C  core  0.5852000   0.2291900   0.5316200
 C  core  0.6103700   0.9338600   0.0796900
 C  core  0.4616200   0.8619400   0.2153200
 C  core  0.3171500   0.0055700   0.8917800
 C  core  0.7931300   0.0585600   0.8530400
 C  core  0.8451400   0.7138800   0.8042400
 C  core  0.2920000   0.3482900   0.5492200
 C  core  0.1911400   0.6409500   0.1615500
 C  core  0.0586700   0.4569100   0.7544000
 C  core  0.3085800   0.0481800   0.4789100
 C  core  0.1613400   0.6863900   0.3800100
 C  core  0.5213300   0.2571600   0.9181800
 C  core  0.0400900   0.0820300   0.0782100
 C  core  0.7418400   0.8853500   0.7636100
 C  core  0.3660900   0.5049100   0.4839100
 C  core  0.0535400   0.8481400   0.4638400
 C  core  0.0308100   0.3864100   0.9451200
 C  core  0.2018800   0.4308400   0.0822000
 C  core  0.1608800   0.6290300   0.7289600
 C  core  0.8767100   0.4810500   0.0532000
 C  core  0.7780900   0.8097600   0.1152800
 C  core  0.9657300   0.1860700   0.9188000
 C  core  0.7647200   0.7527000   0.3123000
 C  core  0.7887700   0.6468400   0.9853400
 C  core  0.1409300   0.9893700   0.5798400
 C  core  0.4523300   0.2111200   0.2367900
 C  core  0.4054500   0.3391900   0.0756100
 C  core  0.3459400   0.0312700   0.2615500
 C  core  0.6019100   0.2153500   0.3508200
 C  core  0.4040200   0.1531900   0.7942600
 C  core  0.6190100   0.4007700   0.8133400
 C  core  0.7175900   0.9105400   0.5689200
 C  core  0.0836100   0.7602900   0.0259500
 C  core  0.5789300   0.4728800   0.2187300
 C  core  0.5599400   0.7542900   0.3515700
 C  core  0.0091600   0.1580200   0.5754400
 C  core  0.6068500   0.5856200   0.8976100
 C  core  0.5543900   0.7699800   0.8109200

brenner
shrink 8 8 8
output freq text freq_1.0225.out
