phonon nofreq
title
diamond
end

cell
 3.570000  3.570000  3.570000 90.00000 90.00000 90.00000
frac
 C  core  0.0000000   0.0000000   0.0000000
 C  core  0.0000000   0.5000000   0.5000000
 C  core  0.5000000   0.5000000   0.0000000
 C  core  0.5000000   0.0000000   0.5000000
 C  core  0.7500000   0.2500000   0.7500000
 C  core  0.2500000   0.2500000   0.2500000
 C  core  0.2500000   0.7500000   0.7500000
 C  core  0.7500000   0.7500000   0.2500000

brenner
shrink
6 6 6

dispersion 7 20
0.5 0.0 0.5 to 0.0 0.0 0.5
0.0 0.0 0.5 to 0.0 0.0 0.0
0.0 0.0 0.0 to 0.5 0.0 0.0
0.5 0.0 0.0 to 0.5 0.5 0.0
0.5 0.5 0.0 to 0.5 0.5 0.5
0.5 0.5 0.5 to 0.0 0.5 0.5
0.0 0.5 0.5 to 0.0 0.5 0.0

box density size 0.5
output phonon diamond
