conp md isotropic
title
ASE calculation
end

cell
 7.089500  7.089500  7.089500 90.00000 90.00000 90.00000
frac
 C  core  0.5034347   0.6316807   0.0945765
 C  core  0.4518513   0.7622822   0.3602511
 C  core  0.3897454   0.3224628   0.9650610
 C  core  0.1544115   0.0595388   0.6882009
 C  core  0.0269271   0.8737711   0.9109528
 C  core  0.8402285   0.5076663   0.6672262
 C  core  0.6166302   0.4375908   0.7285704
 C  core  0.8317794   0.7345370   0.3571902
 C  core  0.9980394   0.2951548   0.3526060
 C  core  0.7448480   0.1961210   0.1737781
 C  core  0.9665280   0.0570844   0.3870654
 C  core  0.0145285   0.9567953   0.5720150
 C  core  0.5862191   0.0966923   0.2008040
 C  core  0.5967276   0.0448269   0.5545243
 C  core  0.5257917   0.3949080   0.0366740
 C  core  0.9883631   0.3425912   0.5852881
 C  core  0.2378588   0.4275337   0.8784399
 C  core  0.9117850   0.6948163   0.8988645
 C  core  0.9327738   0.9793921   0.1070174
 C  core  0.2362790   0.8826151   0.8287749
 C  core  0.9527470   0.6173637   0.7554835
 C  core  0.8790888   0.1562452   0.7588405
 C  core  0.5410960   0.6848720   0.5410255
 C  core  0.7377248   0.7642570   0.8815854
 C  core  0.6758022   0.7062698   0.0881162
 C  core  0.8212850   0.9954299   0.7363284
 C  core  0.4755907   0.5459341   0.6336695
 C  core  0.3486847   0.7418859   0.1726638
 C  core  0.6044009   0.9505184   0.7201777
 C  core  0.8214543   0.3785175   0.2531349
 C  core  0.1108682   0.2156570   0.1690528
 C  core  0.0229353   0.3963890   0.8756189
 C  core  0.5607024   0.7889837   0.7683052
 C  core  0.9130545   0.1436208   0.0571549
 C  core  0.4191551   0.2187742   0.7262571
 C  core  0.1808026   0.4662106   0.5094153
 C  core  0.3365541   0.1716341   0.1322519
 C  core  0.3050850   0.4512448   0.6053459
 C  core  0.1435926   0.6942380   0.4647718
 C  core  0.9593483   0.4757881   0.0277876
 C  core  0.8741096   0.2400169   0.9270611
 C  core  0.4652514   0.2895973   0.2202553
 C  core  0.4515974   0.1652867   0.5610692
 C  core  0.9836801   0.7041963   0.2851118
 C  core  0.4517103   0.3670499   0.4389449
 C  core  0.6458707   0.4258128   0.4285493
 C  core  0.3359757   0.7407434   0.8185345
 C  core  0.0408209   0.9226744   0.2677904
 C  core  0.8382679   0.5187672   0.1188800
 C  core  0.2628676   0.8183934   0.4333310
 C  core  0.7386558   0.6106919   0.5016574
 C  core  0.0654348   0.7452006   0.6279145
 C  core  0.2590592   0.5455956   0.9200367
 C  core  0.0796107   0.5972353   0.2205233
 C  core  0.6895409   0.2662106   0.9050286
 C  core  0.5062275   0.9856548   0.0315819
 C  core  0.5784752   0.9592637   0.3461457
 C  core  0.2043727   0.7002609   0.1159743
 C  core  0.9804218   0.2089851   0.6612173
 C  core  0.2735172   0.0473376   0.5334650
 C  core  0.7749066   0.9409831   0.3676141
 C  core  0.3001058   0.9564285   0.0356302
 C  core  0.5427604   0.0651527   0.8473517
 C  core  0.2907539   0.3132097   0.7106989

brenner
integrator leapfrog verlet
ensemble npt 0.0005 0.0005
temperature 50
equilibration 5.0 ps
timestep 0.0001 ps
sample 0.0050
output cif dm.cif
