conp opti rfo isotropic prop phonon
title
ASE calculation
end

cell
 7.779000  7.372100  7.709700 89.03960 88.87370 90.36380
frac
 C  core  0.4760400   0.5198800   0.0650200
 C  core  0.4111600   0.7358700   0.3064600
 C  core  0.2906300   0.2565200   0.9021600
 C  core  0.1294500   0.0148300   0.6211700
 C  core  0.9630800   0.8539600   0.8827300
 C  core  0.7970300   0.4837100   0.5804900
 C  core  0.6196900   0.4178700   0.6791900
 C  core  0.7932100   0.7154800   0.3267100
 C  core  0.8901500   0.2543800   0.3292200
 C  core  0.6801100   0.1649900   0.1308700
 C  core  0.8815200   0.0376700   0.3664600
 C  core  0.9653000   0.9568300   0.5277300
 C  core  0.5117100   0.0633500   0.1419400
 C  core  0.5619100   0.9866000   0.4867500
 C  core  0.4633800   0.3215000   0.9981700
 C  core  0.9531500   0.3599300   0.4870300
 C  core  0.1595300   0.4185500   0.8310000
 C  core  0.8313200   0.7341300   0.8156100
 C  core  0.9234400   0.9553100   0.0384800
 C  core  0.1491300   0.9146500   0.7980400
 C  core  0.8683300   0.6564900   0.6540800
 C  core  0.8825300   0.1343600   0.7240600
 C  core  0.5021900   0.5981000   0.4124200
 C  core  0.6536700   0.7054600   0.8830800
 C  core  0.6399000   0.5901700   0.0294400
 C  core  0.7881500   0.9790400   0.7160500
 C  core  0.4807300   0.4490000   0.5774600
 C  core  0.3598500   0.6418200   0.1400100
 C  core  0.5964600   0.9568700   0.6831800
 C  core  0.7239200   0.3328400   0.2373400
 C  core  0.0046000   0.1897700   0.1503100
 C  core  0.9716400   0.4000800   0.8934200
 C  core  0.5101100   0.7867500   0.7847600
 C  core  0.8421100   0.1427200   0.0282600
 C  core  0.3582600   0.1784900   0.7035800
 C  core  0.1153500   0.4845300   0.4509600
 C  core  0.1825100   0.1601300   0.0756300
 C  core  0.2850600   0.4033500   0.5123900
 C  core  0.1000200   0.6843100   0.4195900
 C  core  0.9331500   0.5042100   0.0372300
 C  core  0.8288400   0.2549700   0.8654500
 C  core  0.3635800   0.2144800   0.1726300
 C  core  0.4052800   0.1225300   0.5036900
 C  core  0.9862800   0.7162900   0.2671000
 C  core  0.3978600   0.2850200   0.3617800
 C  core  0.5662800   0.3992300   0.3385100
 C  core  0.3186900   0.7670000   0.7907400
 C  core  0.9397700   0.9098700   0.2155800
 C  core  0.7679300   0.4868700   0.1057300
 C  core  0.2588900   0.8077600   0.4153800
 C  core  0.7057400   0.5580800   0.4118700
 C  core  0.9604900   0.7643600   0.5351000
 C  core  0.2356800   0.6029700   0.8714100
 C  core  0.0471400   0.6142200   0.1190900
 C  core  0.6234900   0.2868000   0.8462900
 C  core  0.4423600   0.0061700   0.9650000
 C  core  0.5220800   0.9148000   0.2860800
 C  core  0.2085700   0.6382700   0.0502200
 C  core  0.0280400   0.2105900   0.6114500
 C  core  0.2713200   0.9667500   0.4940300
 C  core  0.7203300   0.9063400   0.3577400
 C  core  0.2520600   0.9937000   0.9570600
 C  core  0.5125100   0.1017400   0.8037200
 C  core  0.1961400   0.3053500   0.6683400

brenner 
maxcyc 2000
output cif rfo.cif
