conv opti lbfgs isotropic
title
ASE calculation
end

cell
 3.543022  3.543022  3.543022 90.00000 90.00000 90.00000
frac
 C  core  0.0000000   0.0000000   0.0000000
 C  core  0.0000000   0.5000000   0.5000000
 C  core  0.5000000   0.5000000   0.0000000
 C  core  0.5000000   0.0000000   0.5000000
 C  core  0.7500000   0.2500000   0.7500000
 C  core  0.2500000   0.2500000   0.2500000
 C  core  0.2500000   0.7500000   0.7500000
 C  core  0.7500000   0.7500000   0.2500000

brenner
maxcyc 2000
output cif opti_0.9775.cif
