conv md
title
ASE calculation
end

cell
 7.090300  7.090300  7.090300 90.00000 90.00000 90.00000
frac
 C  core  0.0278800   0.5884100   0.3651300
 C  core  0.2525700   0.0181100   0.1135400
 C  core  0.1111200   0.4734800   0.2649100
 C  core  0.8955900   0.9379400   0.4355000
 C  core  0.5152200   0.9195000   0.9966400
 C  core  0.8294600   0.4862000   0.2198900
 C  core  0.9473900   0.6007400   0.7031600
 C  core  0.8358900   0.4897700   0.5437300
 C  core  0.1251000   0.3655700   0.6466600
 C  core  0.4439000   0.7819700   0.1185300
 C  core  0.8615600   0.2403800   0.7221100
 C  core  0.5734900   0.9131300   0.5556300
 C  core  0.3824100   0.2449300   0.6218500
 C  core  0.2491400   0.8923200   0.7817400
 C  core  0.5785200   0.6275100   0.3873200
 C  core  0.9714400   0.9573100   0.0864800
 C  core  0.1775800   0.7410000   0.8558300
 C  core  0.3475900   0.6825700   0.6272900
 C  core  0.7188700   0.3469800   0.6512800
 C  core  0.0781800   0.2582700   0.2944600
 C  core  0.9226100   0.1319800   0.4004300
 C  core  0.8682700   0.5962200   0.3942300
 C  core  0.5665500   0.7729400   0.6710900
 C  core  0.7999700   0.3006800   0.3380500
 C  core  0.7155800   0.1932600   0.0433700
 C  core  0.4820000   0.5850700   0.0809800
 C  core  0.5744500   0.2568900   0.6102100
 C  core  0.6598600   0.9949100   0.0577100
 C  core  0.5590700   0.9791300   0.2596400
 C  core  0.3548100   0.9635000   0.9259100
 C  core  0.8544500   0.1324500   0.8650700
 C  core  0.9270700   0.7314600   0.8124600
 C  core  0.2916400   0.3975000   0.5541400
 C  core  0.2808500   0.7490200   0.1815700
 C  core  0.1211700   0.4788100   0.8034400
 C  core  0.2962500   0.0802200   0.5025200
 C  core  0.2218100   0.7232600   0.4407400
 C  core  0.5257200   0.3474600   0.9574500
 C  core  0.0475300   0.1359000   0.1158600
 C  core  0.8199100   0.9431200   0.8123800
 C  core  0.4172300   0.5550700   0.5212300
 C  core  0.0822500   0.8940000   0.4761000
 C  core  0.0616500   0.4265000   0.9601700
 C  core  0.2028000   0.5409900   0.1162400
 C  core  0.2772500   0.5510300   0.8362000
 C  core  0.9068900   0.5250000   0.0261300
 C  core  0.8183200   0.8540100   0.0610400
 C  core  0.0538600   0.2300000   0.9349100
 C  core  0.8018400   0.8315600   0.3097900
 C  core  0.7949600   0.6593700   0.9868700
 C  core  0.1556900   0.0479700   0.6121600
 C  core  0.4187700   0.2795500   0.2381300
 C  core  0.3652500   0.4314300   0.0649900
 C  core  0.3371600   0.0942700   0.2975200
 C  core  0.5709800   0.2123500   0.4044500
 C  core  0.3983600   0.1790100   0.8241000
 C  core  0.6434100   0.4489800   0.8267900
 C  core  0.7810500   0.9278300   0.6023000
 C  core  0.1432200   0.8224100   0.0572000
 C  core  0.6286800   0.5362700   0.2656900
 C  core  0.5851900   0.8212600   0.3807500
 C  core  0.0058700   0.1688500   0.6071100
 C  core  0.6438900   0.6282000   0.9140800
 C  core  0.6231800   0.8364400   0.8333200

brenner
integrator leapfrog verlet
ensemble nvt 0.1
temperature 50
equilibration 5.0 ps
timestep 0.0001 ps
sample 0.0050
output cif dm.cif
