conv md
title
ASE calculation
end

cell
 7.569600  7.569600  7.569600 90.00000 90.00000 90.00000
frac
 C  core  0.0278800   0.5884100   0.3651300
 C  core  0.2680100   0.1004500   0.1084700
 C  core  0.1043300   0.4389900   0.2690700
 C  core  0.8803800   0.9668400   0.4525100
 C  core  0.4799200   0.9198700   0.9880000
 C  core  0.7903200   0.4467400   0.2186000
 C  core  0.9247700   0.6387500   0.7153300
 C  core  0.8095800   0.5598000   0.5876300
 C  core  0.1313300   0.3810900   0.6359000
 C  core  0.4081600   0.7664200   0.1169700
 C  core  0.8685900   0.2564600   0.7285200
 C  core  0.5734200   0.9017300   0.5579200
 C  core  0.4221100   0.2437600   0.6269600
 C  core  0.2004500   0.9836900   0.7981900
 C  core  0.5256100   0.6100900   0.4060700
 C  core  0.9924700   0.9383200   0.1232400
 C  core  0.1358800   0.8211000   0.8585700
 C  core  0.3502200   0.6915800   0.6633900
 C  core  0.7280200   0.3937700   0.6759300
 C  core  0.0517500   0.2580600   0.2706900
 C  core  0.9392800   0.1721400   0.4204000
 C  core  0.8455700   0.6178900   0.4119000
 C  core  0.4824000   0.8198300   0.6906900
 C  core  0.7975600   0.2957500   0.3258400
 C  core  0.6773400   0.1677900   0.0140500
 C  core  0.5239000   0.6062400   0.0875100
 C  core  0.5996400   0.2902600   0.5636800
 C  core  0.6385700   0.9948700   0.1141600
 C  core  0.4845600   0.9176300   0.2505100
 C  core  0.3411300   0.0580800   0.9200800
 C  core  0.8227600   0.1254800   0.8806800
 C  core  0.8728100   0.7695700   0.8371900
 C  core  0.3055400   0.3987400   0.5729300
 C  core  0.2306800   0.6879500   0.1238900
 C  core  0.0705200   0.5074200   0.7790000
 C  core  0.3256400   0.1015300   0.5079600
 C  core  0.1243400   0.7421900   0.4247700
 C  core  0.5442400   0.3169300   0.9528100
 C  core  0.0712100   0.1298400   0.1162100
 C  core  0.7771400   0.9474800   0.7986200
 C  core  0.3934300   0.5607700   0.5329500
 C  core  0.0688400   0.8972900   0.4992300
 C  core  0.9988700   0.4186600   0.9518200
 C  core  0.2424000   0.5014700   0.1567200
 C  core  0.1964000   0.6712400   0.7680100
 C  core  0.8947500   0.5154100   0.0767500
 C  core  0.8039600   0.8642700   0.1539000
 C  core  0.9928500   0.2254900   0.9576600
 C  core  0.7787200   0.8072800   0.3481800
 C  core  0.8265700   0.7001700   0.0234800
 C  core  0.1580500   0.0427100   0.6080500
 C  core  0.4783500   0.2624600   0.2710000
 C  core  0.4376400   0.4004700   0.1202600
 C  core  0.3697000   0.0864300   0.2951900
 C  core  0.6255100   0.2666000   0.3865800
 C  core  0.4229400   0.2132900   0.8283300
 C  core  0.6401900   0.4607200   0.8454600
 C  core  0.7401600   0.9704200   0.6031300
 C  core  0.1026000   0.8024200   0.0443600
 C  core  0.6207000   0.5363600   0.2536400
 C  core  0.5770900   0.8108400   0.3897000
 C  core  0.0245000   0.2132600   0.6064300
 C  core  0.6442400   0.6440200   0.9318700
 C  core  0.5942200   0.8277400   0.8524000

brenner
integrator leapfrog verlet
ensemble nvt 0.1
temperature 50
equilibration 5.0 ps
timestep 0.0001 ps
sample 0.0050
output cif dm.cif
