conp opti rfo isotropic
title
ASE calculation
end

cell
 7.090300  7.090300  7.090300 90.00000 90.00000 90.00000
frac
 C  core  0.0828600   0.5464200   0.4204700
 C  core  0.2851700   0.1215300   0.1153500
 C  core  0.1560100   0.3988200   0.3156300
 C  core  0.8949800   0.9366600   0.4356700
 C  core  0.4707900   0.9140900   0.9775700
 C  core  0.8239800   0.4718000   0.2118800
 C  core  0.9713000   0.6343000   0.6939700
 C  core  0.8451900   0.5414100   0.5694600
 C  core  0.1447000   0.3597800   0.6239500
 C  core  0.3947400   0.7534200   0.1171600
 C  core  0.9032400   0.2551500   0.7461600
 C  core  0.5754900   0.9331900   0.5194100
 C  core  0.4449400   0.2193900   0.6152600
 C  core  0.1835400   0.9772100   0.8151700
 C  core  0.5536800   0.5837800   0.3955400
 C  core  0.9944100   0.9399300   0.1337900
 C  core  0.1740300   0.7982500   0.8959300
 C  core  0.3351800   0.7079100   0.6139400
 C  core  0.7553700   0.3739500   0.6607000
 C  core  0.0683900   0.2295400   0.3057500
 C  core  0.8958500   0.1592700   0.4104800
 C  core  0.8788500   0.5957800   0.3675400
 C  core  0.4633500   0.8618800   0.6580400
 C  core  0.8022500   0.2638500   0.2237900
 C  core  0.7025500   0.1785400   0.0539500
 C  core  0.5067200   0.5840200   0.0590600
 C  core  0.6267500   0.2666300   0.5345500
 C  core  0.6377200   0.9871200   0.1066700
 C  core  0.4907800   0.8943700   0.2549400
 C  core  0.3371200   0.0632100   0.9240000
 C  core  0.8270400   0.1070600   0.8950400
 C  core  0.9105300   0.7863700   0.7979300
 C  core  0.3250100   0.3775100   0.5529500
 C  core  0.2202100   0.6697400   0.2101100
 C  core  0.1081300   0.4932500   0.7780500
 C  core  0.3324900   0.0707700   0.5185400
 C  core  0.2018000   0.7235800   0.4387000
 C  core  0.5630100   0.3059500   0.9486500
 C  core  0.0773500   0.1302900   0.1224800
 C  core  0.7732600   0.9442400   0.7841000
 C  core  0.4127400   0.5412800   0.5116700
 C  core  0.0760300   0.8739700   0.5016900
 C  core  0.0684100   0.4310000   0.9709700
 C  core  0.2202200   0.4646500   0.1235200
 C  core  0.2374300   0.6557900   0.7849100
 C  core  0.9116700   0.5432300   0.0434000
 C  core  0.7990400   0.8592500   0.1214400
 C  core  0.0054300   0.2296900   0.9565300
 C  core  0.8067100   0.7870000   0.3219200
 C  core  0.8165400   0.7107500   0.9725900
 C  core  0.1558600   0.0236100   0.6196000
 C  core  0.4586300   0.2302100   0.2425300
 C  core  0.4067500   0.3792500   0.0837300
 C  core  0.3631300   0.0432700   0.3176600
 C  core  0.6327600   0.2441000   0.3510000
 C  core  0.4461200   0.1971800   0.8177000
 C  core  0.6497000   0.4476900   0.8248200
 C  core  0.7478500   0.0020100   0.5843700
 C  core  0.1177500   0.7963300   0.0802600
 C  core  0.6131800   0.5005100   0.2287200
 C  core  0.6098000   0.7802800   0.3833000
 C  core  0.0260400   0.1870100   0.5918300
 C  core  0.6273600   0.6383700   0.8988000
 C  core  0.5823200   0.8358400   0.8209100

brenner
maxcyc 2000
output cif rfo.cif
