conp opti rfo isotropic prop phonon
title
ASE calculation
end

cell
 7.646500  7.375900  7.563500 88.50840 91.84200 87.64190
frac
 C  core  0.0357800   0.5261700   0.3398900
 C  core  0.2319700   0.0595900   0.0710600
 C  core  0.0877200   0.3700900   0.2414900
 C  core  0.8518700   0.9072700   0.4190000
 C  core  0.4407600   0.8691500   0.9476600
 C  core  0.7926700   0.4237300   0.2149900
 C  core  0.8989700   0.5915700   0.6832100
 C  core  0.7906500   0.5114500   0.5492600
 C  core  0.1101500   0.3417800   0.5973700
 C  core  0.3726400   0.7161000   0.0893600
 C  core  0.8638100   0.2036200   0.7074000
 C  core  0.5466100   0.8553900   0.5117200
 C  core  0.4016100   0.1981900   0.5862300
 C  core  0.1734400   0.9388700   0.7667100
 C  core  0.5026200   0.5587900   0.3676000
 C  core  0.9502300   0.8961200   0.0822500
 C  core  0.1220300   0.7733100   0.8345700
 C  core  0.2762300   0.6802000   0.5641500
 C  core  0.7082300   0.3422500   0.6408800
 C  core  0.0201900   0.1948200   0.2413200
 C  core  0.9124400   0.1126100   0.3918000
 C  core  0.8361300   0.5632500   0.3626400
 C  core  0.4373700   0.7843000   0.6370400
 C  core  0.7679200   0.2345300   0.2914900
 C  core  0.6460000   0.1165500   0.9776200
 C  core  0.4885800   0.5507700   0.0495900
 C  core  0.5794400   0.2401900   0.5260100
 C  core  0.6005100   0.9444700   0.0738300
 C  core  0.4583100   0.8673300   0.2099900
 C  core  0.3067600   0.0190500   0.8822900
 C  core  0.7855400   0.0649700   0.8500800
 C  core  0.8444300   0.7236300   0.8032000
 C  core  0.2802100   0.3579900   0.5297100
 C  core  0.1948400   0.6456300   0.1508000
 C  core  0.0576200   0.4630900   0.7431600
 C  core  0.3023000   0.0561800   0.4706500
 C  core  0.1579100   0.6907700   0.3685500
 C  core  0.5141500   0.2684300   0.9083600
 C  core  0.0308400   0.0807500   0.0747400
 C  core  0.7326600   0.8967800   0.7577200
 C  core  0.3591400   0.5137300   0.4712300
 C  core  0.0528000   0.8600900   0.4532600
 C  core  0.0343400   0.3877800   0.9338100
 C  core  0.1993700   0.4289400   0.0792700
 C  core  0.1615300   0.6364700   0.7218100
 C  core  0.8795600   0.4779700   0.0487600
 C  core  0.7688900   0.8161000   0.1120900
 C  core  0.9584600   0.1898500   0.9147000
 C  core  0.7608000   0.7547900   0.3074700
 C  core  0.7845900   0.6527100   0.9789100
 C  core  0.1405300   0.0000900   0.5718900
 C  core  0.4493700   0.2146800   0.2300700
 C  core  0.4000200   0.3476400   0.0694000
 C  core  0.3426500   0.0398100   0.2615200
 C  core  0.5977400   0.2207400   0.3473100
 C  core  0.3924600   0.1675300   0.7853100
 C  core  0.6070300   0.4140800   0.8068000
 C  core  0.7078300   0.9229600   0.5638400
 C  core  0.0712900   0.7590000   0.0170200
 C  core  0.5798800   0.4661300   0.2198200
 C  core  0.5624500   0.7586000   0.3502800
 C  core  0.0002300   0.1733500   0.5714600
 C  core  0.6056500   0.5927900   0.8985400
 C  core  0.5515400   0.7793100   0.8082900

brenner 
maxcyc 2000
output cif rfo.cif
