conp opti rfo isotropic
title
ASE calculation
end

cell
 7.569600  7.569600  7.569600 90.00000 90.00000 90.00000
frac
 C  core  0.0251000   0.5871500   0.3653200
 C  core  0.2629200   0.1034100   0.1047300
 C  core  0.1013500   0.4382400   0.2676700
 C  core  0.8871700   0.9676700   0.4498500
 C  core  0.4763100   0.9169100   0.9853800
 C  core  0.7923800   0.4471200   0.2189800
 C  core  0.9244800   0.6376500   0.7173100
 C  core  0.8114000   0.5579700   0.5892100
 C  core  0.1356400   0.3811300   0.6337500
 C  core  0.4044800   0.7700900   0.1193200
 C  core  0.8924800   0.2599500   0.7452300
 C  core  0.5739100   0.9027200   0.5568400
 C  core  0.4288700   0.2411400   0.6320400
 C  core  0.2024700   0.9837400   0.7971100
 C  core  0.5258800   0.6117500   0.4043000
 C  core  0.9855000   0.9388400   0.1165800
 C  core  0.1376100   0.8214800   0.8577400
 C  core  0.3519100   0.6900100   0.6613800
 C  core  0.7413100   0.3858100   0.6804600
 C  core  0.0503300   0.2574900   0.2636100
 C  core  0.9364100   0.1760700   0.4191700
 C  core  0.8447800   0.6213200   0.4141500
 C  core  0.4832300   0.8194300   0.6878600
 C  core  0.7968500   0.2941800   0.3235200
 C  core  0.6654300   0.1605100   0.0133800
 C  core  0.5231600   0.6094700   0.0906600
 C  core  0.6085900   0.2784400   0.5704800
 C  core  0.6327400   0.9878100   0.1180600
 C  core  0.4792600   0.9194700   0.2493100
 C  core  0.3430100   0.0576700   0.9193200
 C  core  0.8092800   0.1151800   0.8807100
 C  core  0.8789600   0.7693600   0.8394500
 C  core  0.3122600   0.3951800   0.5730300
 C  core  0.2261600   0.6911500   0.1252600
 C  core  0.0744200   0.5099100   0.7767900
 C  core  0.3279800   0.1071100   0.5091600
 C  core  0.1258600   0.7389100   0.4260200
 C  core  0.5415300   0.3199800   0.9572400
 C  core  0.0602200   0.1316100   0.1061600
 C  core  0.7741500   0.9401200   0.7970500
 C  core  0.3957700   0.5600400   0.5303400
 C  core  0.0729200   0.8958300   0.4970300
 C  core  0.0035500   0.4292600   0.9516500
 C  core  0.2389200   0.5070500   0.1549900
 C  core  0.2002800   0.6699600   0.7671300
 C  core  0.8989400   0.5259900   0.0811300
 C  core  0.7982600   0.8663000   0.1564400
 C  core  0.9857400   0.2240800   0.9481900
 C  core  0.7786400   0.8069300   0.3508700
 C  core  0.8231500   0.7036000   0.0245600
 C  core  0.1601800   0.0430100   0.6072600
 C  core  0.4745600   0.2688300   0.2775100
 C  core  0.4335500   0.4029600   0.1228000
 C  core  0.3639300   0.0912300   0.2910900
 C  core  0.6262700   0.2678000   0.3905400
 C  core  0.4273000   0.2132500   0.8292300
 C  core  0.6416200   0.4585800   0.8471600
 C  core  0.7440400   0.9619900   0.6033600
 C  core  0.0978400   0.8021600   0.0415900
 C  core  0.6236800   0.5390600   0.2534000
 C  core  0.5740700   0.8159900   0.3871700
 C  core  0.0294400   0.2101700   0.6018100
 C  core  0.6414200   0.6410000   0.9338200
 C  core  0.5908900   0.8250500   0.8523900

brenner
maxcyc 2000
output cif rfo.cif
