conp md isotropic
title
ASE calculation
end

cell
 7.090300  7.090300  7.090300 90.00000 90.00000 90.00000
frac
 C  core  0.0278832   0.5884095   0.3651326
 C  core  0.2525704   0.0181092   0.1135354
 C  core  0.1111236   0.4734779   0.2649112
 C  core  0.8955897   0.9379434   0.4354964
 C  core  0.5152250   0.9194956   0.9966433
 C  core  0.8294571   0.4861995   0.2198920
 C  core  0.9473929   0.6007362   0.7031578
 C  core  0.8358885   0.4897677   0.5437288
 C  core  0.1251005   0.3655699   0.6466581
 C  core  0.4439022   0.7819697   0.1185281
 C  core  0.8615573   0.2403848   0.7221133
 C  core  0.5734877   0.9131348   0.5556323
 C  core  0.3824098   0.2449262   0.6218496
 C  core  0.2491432   0.8923177   0.7817441
 C  core  0.5785228   0.6275052   0.3873179
 C  core  0.9714399   0.9573079   0.0864844
 C  core  0.1775806   0.7409983   0.8558312
 C  core  0.3475875   0.6825663   0.6272936
 C  core  0.7188694   0.3469811   0.6512841
 C  core  0.0781772   0.2582683   0.2944586
 C  core  0.9226126   0.1319831   0.4004344
 C  core  0.8682707   0.5962230   0.3942287
 C  core  0.5665487   0.7729433   0.6710858
 C  core  0.7999662   0.3006784   0.3380534
 C  core  0.7155833   0.1932640   0.0433691
 C  core  0.4819965   0.5850669   0.0809839
 C  core  0.5744468   0.2568862   0.6102140
 C  core  0.6598592   0.9949085   0.0577126
 C  core  0.5590737   0.9791264   0.2596364
 C  core  0.3548087   0.9634994   0.9259129
 C  core  0.8544490   0.1324486   0.8650692
 C  core  0.9270694   0.7314641   0.8124621
 C  core  0.2916379   0.3975008   0.5541373
 C  core  0.2808485   0.7490233   0.1815720
 C  core  0.1211655   0.4788091   0.8034357
 C  core  0.2962498   0.0802223   0.5025175
 C  core  0.2218101   0.7232557   0.4407430
 C  core  0.5257182   0.3474606   0.9574489
 C  core  0.0475297   0.1359040   0.1158625
 C  core  0.8199089   0.9431195   0.8123775
 C  core  0.4172320   0.5550682   0.5212332
 C  core  0.0822532   0.8939960   0.4761012
 C  core  0.0616476   0.4264982   0.9601709
 C  core  0.2027982   0.5409926   0.1162433
 C  core  0.2772520   0.5510345   0.8361988
 C  core  0.9068869   0.5249989   0.0261343
 C  core  0.8183152   0.8540118   0.0610411
 C  core  0.0538623   0.2300044   0.9349111
 C  core  0.8018420   0.8315586   0.3097894
 C  core  0.7949593   0.6593656   0.9868694
 C  core  0.1556916   0.0479669   0.6121603
 C  core  0.4187693   0.2795509   0.2381281
 C  core  0.3652455   0.4314345   0.0649902
 C  core  0.3371649   0.0942696   0.2975191
 C  core  0.5709773   0.2123464   0.4044540
 C  core  0.3983611   0.1790051   0.8240977
 C  core  0.6434142   0.4489796   0.8267915
 C  core  0.7810530   0.9278310   0.6023017
 C  core  0.1432238   0.8224053   0.0572049
 C  core  0.6286758   0.5362679   0.2656869
 C  core  0.5851939   0.8212629   0.3807455
 C  core  0.0058672   0.1688504   0.6071111
 C  core  0.6438938   0.6281963   0.9140798
 C  core  0.6231753   0.8364385   0.8333216

brenner
integrator leapfrog verlet
ensemble npt 0.0005 0.0005
temperature 50
equilibration 5.0 ps
timestep 0.0001 ps
sample 0.0050
output cif dm.cif
