phon noden prop
title
ASE calculation
end

cell
 7.498900  7.498900  7.498900 90.00000 90.00000 90.00000
frac
 C  core  0.0357800   0.5261700   0.3398900
 C  core  0.2395100   0.0605400   0.0723500
 C  core  0.0893900   0.3744400   0.2425700
 C  core  0.8584200   0.9093600   0.4153200
 C  core  0.4454600   0.8645500   0.9496400
 C  core  0.7846300   0.4267600   0.2125500
 C  core  0.9051000   0.5866900   0.6822200
 C  core  0.7931400   0.5022300   0.5521500
 C  core  0.1132500   0.3297300   0.6053700
 C  core  0.3694400   0.7117900   0.0885900
 C  core  0.8666500   0.2076100   0.7115600
 C  core  0.5467900   0.8583300   0.5119300
 C  core  0.4032100   0.1897500   0.5890000
 C  core  0.1716700   0.9328800   0.7711200
 C  core  0.5026000   0.5597600   0.3667500
 C  core  0.9570700   0.8980000   0.0836000
 C  core  0.1212800   0.7669800   0.8400200
 C  core  0.2803400   0.6706100   0.5707600
 C  core  0.7149900   0.3328800   0.6417500
 C  core  0.0292000   0.1978100   0.2397700
 C  core  0.9134400   0.1168400   0.3889400
 C  core  0.8347200   0.5630300   0.3629600
 C  core  0.4382200   0.7803500   0.6395100
 C  core  0.7729800   0.2396900   0.2835900
 C  core  0.6473800   0.1143100   0.9829500
 C  core  0.4827800   0.5489000   0.0467100
 C  core  0.5836200   0.2293400   0.5244500
 C  core  0.6060500   0.9392700   0.0773400
 C  core  0.4573700   0.8640300   0.2139400
 C  core  0.3136900   0.0092200   0.8875000
 C  core  0.7911700   0.0638700   0.8506700
 C  core  0.8486100   0.7215000   0.7985200
 C  core  0.2889300   0.3487600   0.5402100
 C  core  0.1886500   0.6440100   0.1563300
 C  core  0.0570000   0.4584600   0.7475500
 C  core  0.3056500   0.0455500   0.4758500
 C  core  0.1605200   0.6887300   0.3782300
 C  core  0.5179200   0.2613800   0.9128500
 C  core  0.0386500   0.0840500   0.0739300
 C  core  0.7415100   0.8922300   0.7593800
 C  core  0.3650400   0.5071700   0.4793300
 C  core  0.0494800   0.8477300   0.4617000
 C  core  0.0305400   0.3885100   0.9378800
 C  core  0.2005000   0.4310700   0.0764100
 C  core  0.1637600   0.6289600   0.7283800
 C  core  0.8779500   0.4852200   0.0449700
 C  core  0.7732600   0.8140100   0.1110900
 C  core  0.9669400   0.1895800   0.9154200
 C  core  0.7623800   0.7547000   0.3075700
 C  core  0.7878400   0.6517200   0.9786600
 C  core  0.1366500   0.9901200   0.5775200
 C  core  0.4452200   0.2126000   0.2299200
 C  core  0.3999000   0.3420900   0.0692200
 C  core  0.3402600   0.0313900   0.2626000
 C  core  0.5986800   0.2163700   0.3416400
 C  core  0.4008300   0.1564600   0.7885600
 C  core  0.6155700   0.4047700   0.8065000
 C  core  0.7145800   0.9212000   0.5641000
 C  core  0.0777200   0.7610700   0.0239800
 C  core  0.5792600   0.4734300   0.2142600
 C  core  0.5582600   0.7572900   0.3491900
 C  core  0.0056000   0.1580300   0.5699000
 C  core  0.6052700   0.5896800   0.8912900
 C  core  0.5522200   0.7744300   0.8062000

brenner
shrink 8 8 8
output freq text freq_0.9775.out
