phon noden prop
title
ASE calculation
end

cell
 7.634300  7.634300  7.634300 90.00000 90.00000 90.00000
frac
 C  core  0.0251000   0.5871500   0.3653200
 C  core  0.2608000   0.1021000   0.1067400
 C  core  0.0999800   0.4394500   0.2671000
 C  core  0.8792100   0.9672600   0.4526400
 C  core  0.4777900   0.9160100   0.9890400
 C  core  0.7859800   0.4482300   0.2213900
 C  core  0.9198900   0.6344700   0.7176400
 C  core  0.8103600   0.5516400   0.5893800
 C  core  0.1325700   0.3804000   0.6397100
 C  core  0.4056100   0.7636200   0.1174400
 C  core  0.8885100   0.2545600   0.7459700
 C  core  0.5721900   0.8962500   0.5570000
 C  core  0.4253800   0.2407900   0.6320100
 C  core  0.2022400   0.9822200   0.7976800
 C  core  0.5218300   0.6077100   0.4060800
 C  core  0.9887800   0.9373800   0.1194700
 C  core  0.1383900   0.8205800   0.8582700
 C  core  0.3496800   0.6884000   0.6632200
 C  core  0.7374300   0.3824200   0.6831200
 C  core  0.0438600   0.2599700   0.2648800
 C  core  0.9361000   0.1745800   0.4200200
 C  core  0.8438200   0.6145700   0.4151900
 C  core  0.4807700   0.8158500   0.6891800
 C  core  0.7941900   0.2987000   0.3287500
 C  core  0.6684600   0.1582400   0.0149600
 C  core  0.5204200   0.6038700   0.0885100
 C  core  0.6052300   0.2804900   0.5709300
 C  core  0.6353100   0.9874200   0.1178300
 C  core  0.4809900   0.9156200   0.2497200
 C  core  0.3401800   0.0556300   0.9230500
 C  core  0.8092600   0.1108600   0.8823700
 C  core  0.8630200   0.7635800   0.8373500
 C  core  0.3077200   0.3954200   0.5773800
 C  core  0.2282900   0.6871100   0.1235500
 C  core  0.0713000   0.5115700   0.7789800
 C  core  0.3258300   0.1031400   0.5084900
 C  core  0.1191800   0.7418900   0.4240000
 C  core  0.5427400   0.3137000   0.9565800
 C  core  0.0622200   0.1324500   0.1081200
 C  core  0.7691400   0.9400400   0.7959100
 C  core  0.3929800   0.5573900   0.5346400
 C  core  0.0678100   0.8974500   0.4979400
 C  core  0.9986800   0.4290400   0.9542600
 C  core  0.2397200   0.5013200   0.1577600
 C  core  0.1983300   0.6708300   0.7691700
 C  core  0.8903900   0.5188800   0.0815700
 C  core  0.8017600   0.8612100   0.1539600
 C  core  0.9829200   0.2225700   0.9480400
 C  core  0.7762800   0.8046000   0.3492400
 C  core  0.8197800   0.6988700   0.0251900
 C  core  0.1592800   0.0415400   0.6073000
 C  core  0.4777800   0.2633900   0.2761200
 C  core  0.4351800   0.3999100   0.1230700
 C  core  0.3673500   0.0864600   0.2914900
 C  core  0.6244000   0.2669200   0.3920100
 C  core  0.4229300   0.2097800   0.8318400
 C  core  0.6437600   0.4542800   0.8500600
 C  core  0.7379200   0.9640200   0.6021400
 C  core  0.1021400   0.8028600   0.0431000
 C  core  0.6166000   0.5357200   0.2542400
 C  core  0.5738100   0.8075700   0.3886900
 C  core  0.0271400   0.2097500   0.6029900
 C  core  0.6397600   0.6395100   0.9324400
 C  core  0.5883700   0.8227800   0.8524300

brenner
shrink 8 8 8
output freq text freq_1.0100.out
