# 
# Keywords:
# 
phon noden prop conp 
# 
# Options:
# 
name alfa-ZrW2O8_2K                                                             
cell
9.12652042 9.12652042 9.12652042 90.000000 90.000000 90.000000
fractional  1   
Zr    core  0.005744  0.005744  0.005744  4.0000000  1.0000  0.0000             
W1    core  0.338462  0.338462  0.338462  6.0000000  1.0000  0.0000             
W2    core  0.597507  0.597507  0.597507  6.0000000  1.0000  0.0000             
O1    core  0.206150  0.438042  0.443170  0.8690200  1.0000  0.0000             
O2    core  0.786625  0.561891  0.565556  0.8690200  1.0000  0.0000             
O3    core  0.484065  0.484065  0.484065  0.8690200  1.0000  0.0000             
O4    core  0.222835  0.222835  0.222835  0.8690200  1.0000  0.0000             
O1    shel  0.212288  0.429307  0.433215 -2.8690199  1.0000  0.0000             
O2    shel  0.772992  0.563696  0.566176 -2.8690199  1.0000  0.0000             
O3    shel  0.493461  0.493461  0.493461 -2.8690199  1.0000  0.0000             
O4    shel  0.234629  0.234629  0.234629 -2.8690199  1.0000  0.0000             
space
198
totalenergy         -2439.4253708912 eV
shrink 32
species   4
Zr     core    4.000000                  
W      core    6.000000                  
O      core    0.869020                  
O      shel   -2.869020                  
buck     
Zr    core O     shel  2383.68808     0.325413  0.000000      0.00 16.00
buck     
W     core O     shel  1169.43625     0.392594  0.000000      0.00 16.00
buck     
O     shel O     shel  22764.0000     0.149000  27.87900      0.00 16.00
covexp     
W     core O     shel 8.2377281     28.876      1.66055  0.000  2.000
spring
O      74.920000    
cutp     16.00000    2.00000
maxcyc opt      100
dump dump_free_T150_i2.txt
temperature 150
