phonon nofreq
title
ASE calculation
end

cell
15.387665 15.387665 15.387665 90.00000 90.00000 90.00000
frac
C     core     0.500983    0.386436    0.641831
C     core     0.994583    0.462421    0.673531
C     core     0.828948    0.888662    0.623811
C     core     0.497620    0.540893    0.187789
C     core     0.010590    0.028619    0.580908
C     core     0.640034    0.331059    0.681067
C     core     0.039921    0.083555    0.138590
C     core     0.608369    0.335049    0.428019
C     core     0.316999    0.311057    0.558101
C     core     0.775201    0.542950    0.295187
C     core     0.089456    0.198336    0.007857
C     core     0.069036    0.028311    0.505219
C     core     0.801877    0.253203    0.490229
C     core     0.154367    0.125904    0.245122
C     core     0.261950    0.677741    0.372098
C     core     0.400840    0.177019    0.701621
C     core     0.684040    0.477693    0.889151
C     core     0.803348    0.142321    0.804918
C     core     0.162773    0.191909    0.946539
C     core     0.621542    0.494882    0.040730
C     core     0.626740    0.817548    0.640570
C     core     0.275976    0.750168    0.159774
C     core     0.717538    0.711622    0.577999
C     core     0.754250    0.817272    0.129982
C     core     0.621899    0.915721    0.320561
C     core     0.674933    0.122068    0.264421
C     core     0.992893    0.298840    0.466690
C     core     0.483708    0.222590    0.822881
C     core     0.587600    0.461228    0.761017
C     core     0.019522    0.042480    0.426159
C     core     0.117283    0.459163    0.535565
C     core     0.354460    0.931216    0.397681
C     core     0.738530    0.157993    0.325047
C     core     0.017611    0.404982    0.757303
C     core     0.080711    0.002857    0.150843
C     core     0.288607    0.844081    0.684681
C     core     0.574010    0.304236    0.203659
C     core     0.925930    0.689110    0.627193
C     core     0.255429    0.082744    0.869030
C     core     0.107221    0.927030    0.817390
C     core     0.178929    0.457853    0.907241
C     core     0.718147    0.053781    0.439789
C     core     0.289971    0.185828    0.409610
C     core     0.407869    0.216063    0.298630
C     core     0.893208    0.140529    0.587358
C     core     0.784931    0.341383    0.131811
C     core     0.203279    0.688150    0.866594
C     core     0.479526    0.091555    0.901212
C     core     0.340811    0.809782    0.890651
C     core     0.153899    0.907546    0.453912
C     core     0.849893    0.699940    0.201242
C     core     0.835201    0.265631    0.405537
C     core     0.214810    0.017358    0.132899
C     core     0.474592    0.315423    0.071036
C     core     0.746009    0.975482    0.478561
C     core     0.152233    0.749396    0.473062
C     core     0.512743    0.958760    0.672024
C     core     0.431609    0.120250    0.321162
C     core     0.025662    0.403838    0.327549
C     core     0.954001    0.808220    0.425287
C     core     0.524908    0.451038    0.157961
C     core     0.050469    0.698139    0.535173
C     core     0.879320    0.735521    0.954191
C     core     0.088936    0.310038    0.459791
C     core     0.481078    0.740911    0.567012
C     core     0.376348    0.434703    0.954064
C     core     0.387413    0.434626    0.282761
C     core     0.782012    0.506008    0.105327
C     core     0.191482    0.927306    0.306316
C     core     0.777938    0.411172    0.193475
C     core     0.399430    0.355302    0.893852
C     core     0.887209    0.095950    0.278392
C     core     0.230370    0.818370    0.599363
C     core     0.053571    0.530598    0.854982
C     core     0.445252    0.463363    0.615141
C     core     0.161450    0.423420    0.002623
C     core     0.117757    0.128609    0.688609
C     core     0.375278    0.598790    0.431133
C     core     0.640781    0.739889    0.876700
C     core     0.079550    0.982540    0.899811
C     core     0.205689    0.729571    0.301687
C     core     0.617650    0.458419    0.123781
C     core     0.256399    0.874841    0.525698
C     core     0.834548    0.459191    0.259847
C     core     0.999081    0.977330    0.280512
C     core     0.256398    0.529928    0.322858
C     core     0.259823    0.251982    0.246039
C     core     0.026718    0.522900    0.208577
C     core     0.057841    0.017081    0.347392
C     core     0.799768    0.920430    0.424321
C     core     0.126694    0.727180    0.139816
C     core     0.343612    0.685509    0.634217
C     core     0.467977    0.816511    0.350937
C     core     0.915401    0.894538    0.656206
C     core     0.438392    0.493980    0.769787
C     core     0.828153    0.122789    0.662221
C     core     0.510961    0.003183    0.937860
C     core     0.164107    0.448053    0.741581
C     core     0.839476    0.610779    0.540160
C     core     0.702771    0.211041    0.608340
C     core     0.097108    0.966972    0.734968
C     core     0.255193    0.932290    0.722862
C     core     0.507580    0.752522    0.967752
C     core     0.701821    0.474885    0.170800
C     core     0.045789    0.845234    0.002858
C     core     0.745491    0.741270    0.061840
C     core     0.182771    0.012911    0.604908
C     core     0.836427    0.279902    0.643041
C     core     0.481456    0.980539    0.041967
C     core     0.295169    0.101129    0.670370
C     core     0.844973    0.155743    0.218309
C     core     0.185198    0.701010    0.955547
C     core     0.262670    0.934739    0.162546
C     core     0.380231    0.613797    0.268829
C     core     0.117300    0.214579    0.098334
C     core     0.206280    0.841619    0.953749
C     core     0.117882    0.544512    0.390670
C     core     0.193638    0.101122    0.939615
C     core     0.531551    0.166782    0.882518
C     core     0.485691    0.021538    0.213493
C     core     0.635769    0.485198    0.600531
C     core     0.564970    0.579569    0.254492
C     core     0.747748    0.974219    0.737360
C     core     0.764106    0.421522    0.684698
C     core     0.146449    0.167659    0.330601
C     core     0.070825    0.792582    0.887877
C     core     0.395688    0.747609    0.756891
C     core     0.880979    0.790952    0.204691
C     core     0.922301    0.917249    0.311900
C     core     0.748704    0.972568    0.216620
C     core     0.020942    0.128542    0.991846
C     core     0.200849    0.373079    0.337478
C     core     0.714691    0.283757    0.127632
C     core     0.352419    0.951834    0.951352
C     core     0.616942    0.860149    0.727462
C     core     0.924578    0.920731    0.908098
C     core     0.460691    0.614713    0.809867
C     core     0.700820    0.521430    0.448362
C     core     0.415793    0.771061    0.090558
C     core     0.531600    0.859821    0.857713
C     core     0.148543    0.653731    0.271573
C     core     0.830865    0.219206    0.575242
C     core     0.863551    0.958951    0.369689
C     core     0.059952    0.943607    0.214426
C     core     0.788981    0.118788    0.153180
C     core     0.841109    0.345849    0.802932
C     core     0.373489    0.737883    0.846394
C     core     0.167977    0.944019    0.675490
C     core     0.157862    0.001762    0.478450
C     core     0.079158    0.680120    0.439092
C     core     0.992951    0.499124    0.301929
C     core     0.295260    0.140768    0.010054
C     core     0.120701    0.872421    0.071134
C     core     0.845147    0.546638    0.714003
C     core     0.332163    0.674617    0.479500
C     core     0.397382    0.012679    0.999958
C     core     0.661867    0.424510    0.810701
C     core     0.525552    0.020014    0.599021
C     core     0.249289    0.922631    0.823657
C     core     0.137838    0.540921    0.722353
C     core     0.892981    0.505241    0.977034
C     core     0.410171    0.748532    0.628171
C     core     0.658689    0.214199    0.793319
C     core     0.004758    0.393063    0.095583
C     core     0.253579    0.759170    0.731100
C     core     0.482709    0.868729    0.203162
C     core     0.039929    0.827670    0.405601
C     core     0.003038    0.452866    0.839936
C     core     0.768275    0.637817    0.590368
C     core     0.563771    0.175950    0.161699
C     core     0.307167    0.028091    0.394472
C     core     0.041433    0.083881    0.739752
C     core     0.919677    0.810952    0.516658
C     core     0.238788    0.580012    0.584410
C     core     0.791051    0.705489    0.813588
C     core     0.165492    0.406468    0.830938
C     core     0.040748    0.232721    0.238960
C     core     0.951287    0.255081    0.039640
C     core     0.190789    0.872825    0.379822
C     core     0.064861    0.852380    0.579166
C     core     0.674733    0.716773    0.396691
C     core     0.972199    0.630144    0.101232
C     core     0.079993    0.548438    0.566872
C     core     0.648010    0.044601    0.851909
C     core     0.719935    0.272578    0.534198
C     core     0.297753    0.990248    0.874902
C     core     0.603882    0.241637    0.393524
C     core     0.734197    0.436442    0.412151
C     core     0.972709    0.303541    0.560359
C     core     0.667597    0.379729    0.358778
C     core     0.319658    0.846352    0.455330
C     core     0.190330    0.328956    0.008996
C     core     0.757601    0.922509    0.896934
C     core     0.262049    0.495535    0.563002
C     core     0.551922    0.608428    0.830345
C     core     0.892582    0.844882    0.049009
C     core     0.969569    0.518111    0.459633
C     core     0.662414    0.048652    0.098202
C     core     0.406831    0.875006    0.503759
C     core     0.442222    0.913561    0.712468
C     core     0.531473    0.829969    0.427453
C     core     0.221802    0.077477    0.209568
C     core     0.685132    0.909211    0.246148
C     core     0.635706    0.540331    0.514751
C     core     0.450637    0.348925    0.484342
C     core     0.000189    0.137382    0.889161
C     core     0.161058    0.166997    0.527140
C     core     0.425542    0.197531    0.199198
C     core     0.096982    0.836781    0.488931
C     core     0.290259    0.884955    0.090851
C     core     0.617539    0.992108    0.941040
C     core     0.798004    0.979084    0.823828
C     core     0.588402    0.518662    0.320690
C     core     0.127978    0.783329    0.968316
C     core     0.714475    0.062910    0.189376
C     core     0.123968    0.503702    0.221809
C     core     0.455152    0.410888    0.092132
C     core     0.582308    0.667508    0.272467
C     core     0.489831    0.664792    0.949293
C     core     0.759263    0.943278    0.650169
C     core     0.925490    0.294341    0.403661
C     core     0.975285    0.860632    0.592874
C     core     0.363401    0.019762    0.805172
C     core     0.173829    0.636822    0.412391
C     core     0.785769    0.070888    0.866841
C     core     0.658877    0.017703    0.754878
C     core     0.588676    0.892040    0.969830
C     core     0.477159    0.281882    0.311929
C     core     0.459623    0.260802    0.505360
C     core     0.546979    0.304604    0.998971
C     core     0.660792    0.584478    0.042890
C     core     0.449902    0.663620    0.412462
C     core     0.605624    0.272882    0.743897
C     core     0.322111    0.757352    0.416081
C     core     0.793159    0.741090    0.976232
C     core     0.906271    0.764981    0.354029
C     core     0.315477    0.203008    0.920359
C     core     0.320470    0.600197    0.344720
C     core     0.321362    0.017741    0.501191
C     core     0.791484    0.281191    0.738170
C     core     0.758572    0.572361    0.663181
C     core     0.361830    0.346881    0.715368
C     core     0.280151    0.599800    0.754633
C     core     0.012168    0.004109    0.686951
C     core     0.268171    0.186548    0.731203
C     core     0.241250    0.791618    0.234873
C     core     0.234029    0.608450    0.836419
C     core     0.937138    0.036553    0.233160
C     core     0.234079    0.886182    0.235191
C     core     0.124201    0.690751    0.603806
C     core     0.682919    0.005279    0.023939
C     core     0.698127    0.634179    0.177923
C     core     0.970130    0.734937    0.561911
C     core     0.519972    0.632707    0.135819
C     core     0.496879    0.797811    0.260110
C     core     0.043781    0.568353    0.939040
C     core     0.411962    0.172206    0.791403
C     core     0.932741    0.440723    0.902011
C     core     0.538273    0.860407    0.130302
C     core     0.847041    0.363350    0.060492
C     core     0.479146    0.025460    0.511913
C     core     0.896051    0.949938    0.818823
C     core     0.786637    0.113381    0.060994
C     core     0.606487    0.793321    0.153138
C     core     0.984826    0.228887    0.696370
C     core     0.842319    0.418991    0.738229
C     core     0.541510    0.633961    0.419039
C     core     0.637248    0.318162    0.519780
C     core     0.733738    0.140360    0.657831
C     core     0.536950    0.827523    0.772736
C     core     0.272521    0.459389    0.214962
C     core     0.407800    0.096053    0.841628
C     core     0.641651    0.733811    0.084031
C     core     0.631732    0.456698    0.961097
C     core     0.863343    0.395189    0.328083
C     core     0.843851    0.851976    0.136950
C     core     0.538780    0.959364    0.367298
C     core     0.332625    0.501582    0.170385
C     core     0.351272    0.447854    0.671513
C     core     0.741261    0.750770    0.894960
C     core     0.560274    0.742739    0.225892
C     core     0.013650    0.915000    0.935680
C     core     0.219544    0.882299    0.033143
C     core     0.024737    0.508864    0.003198
C     core     0.763717    0.587110    0.385439
C     core     0.059160    0.671289    0.796969
C     core     0.515328    0.280240    0.758961
C     core     0.019116    0.549879    0.380521
C     core     0.529332    0.657510    0.576158
C     core     0.193743    0.152333    0.422399
C     core     0.516163    0.889144    0.040939
C     core     0.711402    0.558672    0.226653
C     core     0.456086    0.163621    0.014988
C     core     0.902571    0.540650    0.260511
C     core     0.389322    0.831278    0.689559
C     core     0.088920    0.584762    0.788391
C     core     0.661297    0.682375    0.725637
C     core     0.577416    0.520069    0.682982
C     core     0.986790    0.084279    0.062824
C     core     0.733623    0.799857    0.528578
C     core     0.350033    0.074760    0.316607
C     core     0.112109    0.816803    0.151752
C     core     0.769909    0.686901    0.153105
C     core     0.189761    0.395448    0.669831
C     core     0.549582    0.013238    0.440619
C     core     0.692239    0.247022    0.028452
C     core     0.834971    0.037158    0.017828
C     core     0.130959    0.463780    0.441153
C     core     0.374871    0.231562    0.552611
C     core     0.815797    0.754348    0.380730
C     core     0.182253    0.288100    0.102612
C     core     0.448530    0.531095    0.689831
C     core     0.706008    0.599016    0.738258
C     core     0.389353    0.101927    0.003350
C     core     0.391769    0.525543    0.486127
C     core     0.031952    0.727912    0.728788
C     core     0.825084    0.833751    0.547291
C     core     0.456500    0.669471    0.723991
C     core     0.913470    0.031209    0.074162
C     core     0.145721    0.591561    0.629578
C     core     0.648346    0.599730    0.946876
C     core     0.907058    0.144596    0.933421
C     core     0.468910    0.504410    0.527882
C     core     0.450713    0.819137    0.012067
C     core     0.363008    0.378955    0.514381
C     core     0.888170    0.348397    0.891760
C     core     0.532554    0.477326    0.467092
C     core     0.909809    0.829499    0.281320
C     core     0.207385    0.730122    0.559147
C     core     0.728617    0.339023    0.684858
C     core     0.757322    0.684391    0.380230
C     core     0.771542    0.958522    0.995028
C     core     0.525732    0.387963    0.449358
C     core     0.708764    0.309059    0.294870
C     core     0.748081    0.209060    0.782610
C     core     0.070380    0.829151    0.317509
C     core     0.333756    0.803902    0.111801
C     core     0.727362    0.486019    0.636022
C     core     0.026408    0.656410    0.957699
C     core     0.864238    0.901041    0.980091
C     core     0.163540    0.558049    0.298431
C     core     0.978928    0.285450    0.894836
C     core     0.443542    0.115384    0.493439
C     core     0.375533    0.270397    0.936650
C     core     0.617017    0.641329    0.109931
C     core     0.719787    0.846738    0.865446
C     core     0.164818    0.192172    0.736742
C     core     0.180108    0.307790    0.268879
C     core     0.579698    0.155980    0.257680
C     core     0.213135    0.702639    0.109932
C     core     0.828685    0.425011    0.408552
C     core     0.379708    0.862846    0.953106
C     core     0.685299    0.838387    0.185731
C     core     0.161688    0.315697    0.847978
C     core     0.461621    0.329291    0.701739
C     core     0.212761    0.471051    0.075710
C     core     0.987891    0.695008    0.035412
C     core     0.937858    0.717889    0.715537
C     core     0.868773    0.126730    0.744322
C     core     0.440941    0.918329    0.348039
C     core     0.961412    0.274218    0.246050
C     core     0.953962    0.220418    0.616589
C     core     0.015869    0.223812    0.824981
C     core     0.625671    0.079819    0.465408
C     core     0.121699    0.836167    0.822824
C     core     0.626344    0.036836    0.563427
C     core     0.312479    0.511838    0.735295
C     core     0.560959    0.536877    0.405260
C     core     0.310961    0.090043    0.234117
C     core     0.724476    0.315868    0.954586
C     core     0.767528    0.247571    0.334471
C     core     0.896260    0.635793    0.258072
C     core     0.224293    0.310509    0.607970
C     core     0.499096    0.257527    0.150359
C     core     0.017543    0.262391    0.976972
C     core     0.879830    0.493275    0.448987
C     core     0.858242    0.069314    0.930249
C     core     0.330392    0.464871    0.512228
C     core     0.591758    0.953392    0.721787
C     core     0.339777    0.501379    0.900164
C     core     0.590257    0.393703    0.634778
C     core     0.061588    0.295951    0.616123
C     core     0.704929    0.110570    0.921037
C     core     0.773141    0.097296    0.385933
C     core     0.343335    0.152677    0.494011
C     core     0.142200    0.271061    0.549011
C     core     0.152983    0.101719    0.602518
C     core     0.826949    0.943702    0.173518
C     core     0.890280    0.195159    0.008770
C     core     0.482329    0.815481    0.506343
C     core     0.936170    0.331858    0.081561
C     core     0.624483    0.151980    0.861223
C     core     0.565858    0.344449    0.919101
C     core     0.428609    0.251781    0.006842
C     core     0.196842    0.434852    0.582168
C     core     0.541532    0.391675    0.237740
C     core     0.108418    0.248780    0.301560
C     core     0.506350    0.027639    0.124106
C     core     0.347319    0.378068    0.810530
C     core     0.935992    0.949962    0.730410
C     core     0.305098    0.181372    0.105839
C     core     0.496248    0.378421    0.870030
C     core     0.735615    0.565652    0.897201
C     core     0.035088    0.428920    0.588162
C     core     0.950044    0.340270    0.317672
C     core     0.483341    0.933669    0.868090
C     core     0.339761    0.588513    0.932201
C     core     0.600079    0.682862    0.361770
C     core     0.949790    0.540657    0.065256
C     core     0.400861    0.684193    0.220487
C     core     0.580699    0.800489    0.922413
C     core     0.249562    0.837781    0.868638
C     core     0.134858    0.973292    0.071067
C     core     0.588471    0.172913    0.453381
C     core     0.576389    0.105447    0.635184
C     core     0.730428    0.753377    0.748349
C     core     0.096930    0.759282    0.671652
C     core     0.606540    0.432643    0.299641
C     core     0.665166    0.288671    0.209287
C     core     0.535900    0.193059    0.615992
C     core     0.113489    0.382490    0.390621
C     core     0.924704    0.594152    0.594211
C     core     0.297600    0.598733    0.013986
C     core     0.506173    0.441912    0.804098
C     core     0.231364    0.663887    0.026401
C     core     0.595881    0.230766    0.019051
C     core     0.886582    0.236921    0.210091
C     core     0.019671    0.618838    0.179409
C     core     0.404931    0.965832    0.512309
C     core     0.778568    0.832668    0.411503
C     core     0.084440    0.857221    0.228899
C     core     0.926967    0.729909    0.874640
C     core     0.139469    0.015930    0.973233
C     core     0.204089    0.770374    0.811178
C     core     0.143162    0.852188    0.643212
C     core     0.409233    0.528724    0.228533
C     core     0.912240    0.407162    0.681267
C     core     0.090520    0.670059    0.203311
C     core     0.404627    0.650778    0.890528
C     core     0.965319    0.152649    0.758141
C     core     0.290078    0.165768    0.835833
C     core     0.082981    0.163096    0.175986
C     core     0.651289    0.729109    0.639436
C     core     0.456439    0.370999    0.287470
C     core     0.418118    0.741360    0.387899
C     core     0.308579    0.021840    0.720510
C     core     0.817562    0.335762    0.966091
C     core     0.669408    0.864914    0.575082
C     core     0.758392    0.573790    0.050747
C     core     0.504251    0.089451    0.274210
C     core     0.848981    0.459871    0.063059
C     core     0.977643    0.473466    0.137561
C     core     0.969488    0.790345    0.036112
C     core     0.010411    0.647438    0.377657
C     core     0.575792    0.611947    0.511548
C     core     0.306611    0.517078    0.073112
C     core     0.259898    0.244899    0.150661
C     core     0.185380    0.444690    0.171101
C     core     0.863652    0.063069    0.370137
C     core     0.563583    0.612459    0.921618
C     core     0.305921    0.095472    0.578066
C     core     0.281168    0.431102    0.314032
C     core     0.320642    0.466152    0.817073
C     core     0.902512    0.339272    0.625729
C     core     0.455099    0.943113    0.247670
C     core     0.696960    0.834934    0.776793
C     core     0.361071    0.139227    0.167596
C     core     0.512619    0.607610    0.660958
C     core     0.062882    0.429447    0.026679
C     core     0.695808    0.963002    0.567209
C     core     0.684337    0.805559    0.435678
C     core     0.604427    0.248298    0.587467
C     core     0.044874    0.310201    0.724467
C     core     0.110481    0.258377    0.786908
C     core     0.149737    0.009568    0.332600
C     core     0.885617    0.719688    0.794709
C     core     0.897349    0.001308    0.158192
C     core     0.205479    0.053340    0.404794
C     core     0.161799    0.350328    0.179201
C     core     0.294246    0.680267    0.711601
C     core     0.763125    0.609790    0.817290
C     core     0.729640    0.156601    0.004739
C     core     0.021345    0.711449    0.878490
C     core     0.560326    0.237190    0.314111
C     core     0.922208    0.536258    0.671338
C     core     0.804161    0.563819    0.968415
C     core     0.450360    0.699261    0.141983
C     core     0.189821    0.783697    0.385366
C     core     0.524193    0.738960    0.760911
C     core     0.427950    0.948328    0.797990
C     core     0.943401    0.679527    0.326720
C     core     0.283038    0.666056    0.560240
C     core     0.599324    0.689878    0.798296
C     core     0.239989    0.969801    0.532071
C     core     0.442578    0.201262    0.623966
C     core     0.215523    0.538050    0.890380
C     core     0.384672    0.452357    0.042992
C     core     0.311461    0.223339    0.321219
C     core     0.574997    0.092358    0.103632
C     core     0.995028    0.560560    0.536876
C     core     0.825999    0.566323    0.463630
C     core     0.042300    0.061759    0.841531
C     core     0.932390    0.064709    0.447804
C     core     0.504602    0.183446    0.488978
C     core     0.932010    0.068402    0.541548
C     core     0.658071    0.350529    0.891462
C     core     0.187240    0.279693    0.929893
C     core     0.546081    0.157430    0.034350
C     core     0.295151    0.276182    0.685517
C     core     0.222232    0.061292    0.034839
C     core     0.661417    0.094708    0.692528
C     core     0.613350    0.859610    0.403690

brenner
shrink
4 4 4

dispersion 7 20
0.5 0.0 0.5 to 0.0 0.0 0.5
0.0 0.0 0.5 to 0.0 0.0 0.0
0.0 0.0 0.0 to 0.5 0.0 0.0
0.5 0.0 0.0 to 0.5 0.5 0.0
0.5 0.5 0.0 to 0.5 0.5 0.5
0.5 0.5 0.5 to 0.0 0.5 0.5
0.0 0.5 0.5 to 0.0 0.5 0.0

box density size 2
output phonon 70sp2_0047