phon noden prop
title
ASE calculation
end

cell
 7.593100  7.593100  7.593100 90.00000 90.00000 90.00000
frac
 C  core  0.4760400   0.5198800   0.0650200
 C  core  0.4110900   0.7391300   0.3055100
 C  core  0.2905800   0.2597200   0.9111100
 C  core  0.1051700   0.0091300   0.6141300
 C  core  0.9612100   0.8530600   0.8808600
 C  core  0.7965600   0.4753200   0.5801900
 C  core  0.6148500   0.4157700   0.6789100
 C  core  0.7905200   0.7134700   0.3311500
 C  core  0.8840700   0.2465600   0.3257800
 C  core  0.6860900   0.1604600   0.1397500
 C  core  0.8720900   0.0391800   0.3582400
 C  core  0.9514400   0.9320800   0.5177500
 C  core  0.5158100   0.0579400   0.1483000
 C  core  0.5527100   0.9798400   0.4948400
 C  core  0.4695700   0.3287600   0.0010700
 C  core  0.9506100   0.3504200   0.4863100
 C  core  0.1605400   0.4180200   0.8297600
 C  core  0.8338900   0.7311700   0.8145700
 C  core  0.9157200   0.9480900   0.0353300
 C  core  0.1451500   0.9143000   0.7929000
 C  core  0.8733000   0.6455300   0.6554200
 C  core  0.8913800   0.1231900   0.7258100
 C  core  0.5017700   0.6014000   0.4128900
 C  core  0.6532600   0.7031300   0.8818900
 C  core  0.6413000   0.5872400   0.0276500
 C  core  0.7913500   0.9728200   0.7192300
 C  core  0.4705900   0.4654400   0.5763600
 C  core  0.3596100   0.6415100   0.1379900
 C  core  0.5924500   0.9514600   0.6894300
 C  core  0.7157500   0.3396700   0.2339800
 C  core  0.0077900   0.1928100   0.1552600
 C  core  0.9708400   0.3951700   0.8926100
 C  core  0.5066400   0.7854800   0.7817500
 C  core  0.8476700   0.1356300   0.0315500
 C  core  0.3548500   0.1747100   0.7105800
 C  core  0.1149400   0.4772600   0.4452500
 C  core  0.1828900   0.1608700   0.0814000
 C  core  0.2821700   0.3986000   0.5163300
 C  core  0.1038100   0.6725100   0.4188800
 C  core  0.9342600   0.4981700   0.0368500
 C  core  0.8342800   0.2455000   0.8691300
 C  core  0.3723500   0.2123400   0.1680900
 C  core  0.3957600   0.1165000   0.5062800
 C  core  0.9823000   0.7125000   0.2647300
 C  core  0.3947300   0.2765700   0.3657800
 C  core  0.5556500   0.3987800   0.3379400
 C  core  0.3106700   0.7625700   0.7793600
 C  core  0.9323500   0.9005100   0.2117100
 C  core  0.7684100   0.4855300   0.1084700
 C  core  0.2554800   0.8041700   0.4130600
 C  core  0.7081300   0.5509500   0.4055700
 C  core  0.9570600   0.7480200   0.5317200
 C  core  0.2323400   0.6044700   0.8600200
 C  core  0.0426100   0.6184200   0.1105500
 C  core  0.6262800   0.2860800   0.8446600
 C  core  0.4397800   0.0099900   0.9676400
 C  core  0.5209900   0.9122500   0.2850100
 C  core  0.2060500   0.6464900   0.0423100
 C  core  0.0365100   0.2098300   0.6115300
 C  core  0.2579100   0.9623700   0.4915100
 C  core  0.7162100   0.8948400   0.3674400
 C  core  0.2436500   0.0042800   0.9532000
 C  core  0.5180100   0.0992500   0.8075600
 C  core  0.2007300   0.3027100   0.6688200

brenner
temperature 10 10 29
shrink 8 8 8
output freq text freq_0.9775.out
